     Program PHONON v.6.8 starts on 22Nov2021 at 14:55:31

     R & G space division:  proc/nbgrp/npool/nimage =       4

     Waiting for input...
     Reading input from standard input

     Reading xml data from directory:

     ./gan.save/

     IMPORTANT: XC functional enforced from input :
     Exchange-correlation= PZ
                           (   1   1   0   0   0   0   0)
     Any further DFT definition will be discarded
     Please, verify this is what you really want

     Using Slab Decomposition

     Check: negative core charge=   -0.000043
     Reading collected, re-writing distributed wavefunctions

     Dynamical matrices for ( 2, 2, 2)  uniform grid of q-points
     (   4 q-points):
       N         xq(1)         xq(2)         xq(3)
       1   0.000000000   0.000000000   0.000000000
       2   0.000000000   0.000000000  -0.306767286
       3   0.000000000  -0.577350269   0.000000000
       4   0.000000000  -0.577350269  -0.306767286
Eigenvectors exchange needed    1    3
Eigenvectors exchange needed    3    4
Eigenvectors exchange needed    5    9
Eigenvectors exchange needed    5   10
Eigenvectors exchange needed    6    9
Eigenvectors exchange needed    7   10
Eigenvectors exchange needed    9   11
Eigenvectors exchange needed    9   12
Eigenvectors exchange needed   10   11
Eigenvectors exchange needed   11   12
Eigenvectors exchange needed    1    7
Eigenvectors exchange needed    3    9
Eigenvectors exchange needed    5   11
Eigenvectors exchange needed    7    8
Eigenvectors exchange needed    9   10
Eigenvectors exchange needed   11   12

     Saving dvscf to file. Distribute only q points, not irreducible represetations.

     Calculation of q =    0.0000000   0.0000000   0.0000000

     ---

     bravais-lattice index     =            4
     lattice parameter (alat)  =       5.9612  a.u.
     unit-cell volume          =     299.0148 (a.u.)^3
     number of atoms/cell      =            4
     number of atomic types    =            2
     kinetic-energy cut-off    =      40.0000  Ry
     charge density cut-off    =     160.0000  Ry
     convergence threshold     =      1.0E-14
     beta                      =       0.7000
     number of iterations used =            4
     Exchange-correlation= PZ
                           (   1   1   0   0   0   0   0)

     celldm(1)=    5.96120  celldm(2)=    0.00000  celldm(3)=    1.62990
     celldm(4)=    0.00000  celldm(5)=    0.00000  celldm(6)=    0.00000

     crystal axes: (cart. coord. in units of alat)
               a(1) = (  1.0000  0.0000  0.0000 )
               a(2) = ( -0.5000  0.8660  0.0000 )
               a(3) = (  0.0000  0.0000  1.6299 )

     reciprocal axes: (cart. coord. in units 2 pi/alat)
               b(1) = (  1.0000  0.5774 -0.0000 )
               b(2) = (  0.0000  1.1547  0.0000 )
               b(3) = (  0.0000 -0.0000  0.6135 )

     Atoms inside the unit cell:

     Cartesian axes

     site n.  atom      mass           positions (alat units)
        1     Ga  69.7230   tau(    1) = (    0.50000    0.28868    0.00000  )
        2     N   14.0070   tau(    2) = (    0.50000    0.28868    0.61359  )
        3     Ga  69.7230   tau(    3) = (   -0.00000    0.57735    0.81495  )
        4     N   14.0070   tau(    4) = (   -0.00000    0.57735    1.42854  )

     Computing dynamical matrix for
                    q = (   0.0000000   0.0000000   0.0000000 )

     13 Sym.Ops. (with q -> -q+G )

     G cutoff =  144.0216  (   2544 G-vectors)     FFT grid: ( 25, 25, 40)
     number of k points=     4

     PseudoPot. # 1 for Ga read from file:
     ./Ga-LDA.upf
     MD5 check sum: 876592653117dae7654c8939816812b6
     Pseudo is Norm-conserving + core correction, Zval = 13.0
     Generated using ONCVPSP code by D. R. Hamann
     Using radial grid of 1858 points,  6 beta functions with:
                l(1) =   0
                l(2) =   0
                l(3) =   1
                l(4) =   1
                l(5) =   2
                l(6) =   2

     PseudoPot. # 2 for N  read from file:
     ./N-LDA.upf
     MD5 check sum: 866fc8d98626a2fc4e4cda8444e99222
     Pseudo is Norm-conserving + core correction, Zval =  5.0
     Generated using ONCVPSP code by D. R. Hamann
     Using radial grid of 1058 points,  4 beta functions with:
                l(1) =   0
                l(2) =   0
                l(3) =   1
                l(4) =   1

     Mode symmetry, C_6v (6mm)  point group:

     Electric field:
     Dielectric constant
     Born effective charges in two ways

     Atomic displacements:
     There are    8 irreducible representations

     Representation     1      1 modes -  To be done

[...]

     Alpha used in Ewald sum =   1.5000

     Electric Fields Calculation

      thresh= 1.000E-02 alpha_mix =  0.700 |ddv_scf|^2 =  6.430E-07

[...]

     End of electric fields calculation

          Dielectric constant in cartesian axis

          (      23.120041158       0.000000000       0.000000000 )
          (       0.000000000      23.120041158      -0.000000000 )
          (       0.000000000       0.000000000      17.229827031 )

          Effective charges (d Force / dE) in cartesian axis

           atom      1   Ga
      Ex  (        3.29242        0.00000        0.00000 )
      Ey  (        0.00000        3.29242       -0.00000 )
      Ez  (        0.00000        0.00000        3.60313 )
           atom      2   N
      Ex  (       -6.10353       -0.00000        0.00000 )
      Ey  (       -0.00000       -6.10353        0.00000 )
      Ez  (        0.00000        0.00000       -3.50843 )
           atom      3   Ga
      Ex  (        3.29242        0.00000        0.00000 )
      Ey  (        0.00000        3.29242        0.00000 )
      Ez  (        0.00000        0.00000        3.60313 )
           atom      4   N
      Ex  (       -6.10353        0.00000        0.00000 )
      Ey  (        0.00000       -6.10353       -0.00000 )
      Ez  (        0.00000       -0.00000       -3.50843 )

     Representation #   1 mode #   1

     Self-consistent Calculation

[...]

     End of self-consistent calculation

     Convergence has been achieved

[...]

     Representation #   5 modes #   5   6

[...]

     Number of q in the star =    1
     List of q in the star:
          1   0.000000000   0.000000000   0.000000000

          Dielectric constant in cartesian axis

          (      23.120041158       0.000000000       0.000000000 )
          (       0.000000000      23.120041158      -0.000000000 )
          (       0.000000000       0.000000000      17.229827031 )

          Effective charges (d Force / dE) in cartesian axis

[...]

          Effective charges (d P / du) in cartesian axis

           atom      1   Ga
      Px  (        3.29210        0.00000        0.00000 )
      Py  (        0.00000        3.29210        0.00000 )
      Pz  (        0.00000       -0.00000        3.60323 )
           atom      2   N
      Px  (       -6.10322        0.00000        0.00000 )
      Py  (        0.00000       -6.10322       -0.00000 )
      Pz  (        0.00000        0.00000       -3.50839 )
           atom      3   Ga
      Px  (        3.29210        0.00000        0.00000 )
      Py  (        0.00000        3.29210       -0.00000 )
      Pz  (        0.00000        0.00000        3.60323 )
           atom      4   N
      Px  (       -6.10322        0.00000        0.00000 )
      Py  (       -0.00000       -6.10322       -0.00000 )
      Pz  (        0.00000        0.00000       -3.50839 )

     Diagonalizing the dynamical matrix

     q = (    0.000000000   0.000000000   0.000000000 )

     freq (    1) =      -0.416525 [THz] =     -13.893792 [cm-1]
     freq (    2) =      -0.416525 [THz] =     -13.893792 [cm-1]
     freq (    3) =      -0.123641 [THz] =      -4.124231 [cm-1]
     freq (    4) =       5.001112 [THz] =     166.819136 [cm-1]
     freq (    5) =       5.001112 [THz] =     166.819136 [cm-1]
     freq (    6) =      11.284514 [THz] =     376.410868 [cm-1]
     freq (    7) =      17.190361 [THz] =     573.408706 [cm-1]
     freq (    8) =      18.501743 [THz] =     617.151707 [cm-1]
     freq (    9) =      18.501743 [THz] =     617.151707 [cm-1]
     freq (   10) =      18.537156 [THz] =     618.332956 [cm-1]
     freq (   11) =      18.537156 [THz] =     618.332956 [cm-1]
     freq (   12) =      20.581597 [THz] =     686.528187 [cm-1]

[...]

     freq (   1-   2) =        -13.9  [cm-1]   --> E_1             I+R
     freq (   3-   3) =         -4.1  [cm-1]   --> A_1             I+R
     freq (   4-   5) =        166.8  [cm-1]   --> E_2             R
     freq (   6-   6) =        376.4  [cm-1]   --> B_1
     freq (   7-   7) =        573.4  [cm-1]   --> A_1             I+R
     freq (   8-   9) =        617.2  [cm-1]   --> E_2             R
     freq (  10-  11) =        618.3  [cm-1]   --> E_1             I+R
     freq (  12-  12) =        686.5  [cm-1]   --> B_1

[...]

     Subspace diagonalization in iterative solution of the eigenvalue problem:
     a serial algorithm will be used

[...]

     Title:
     ---

     bravais-lattice index     =            4
     lattice parameter (alat)  =       5.9612  a.u.
     unit-cell volume          =     299.0148 (a.u.)^3
     number of atoms/cell      =            4
     number of atomic types    =            2
     number of electrons       =        36.00
     number of Kohn-Sham states=           18
     kinetic-energy cutoff     =      40.0000  Ry
     charge density cutoff     =     160.0000  Ry
     Exchange-correlation= PZ
                           (   1   1   0   0   0   0   0)

[...]

     atomic species   valence    mass     pseudopotential
        Ga            13.00    69.72300     Ga( 1.00)
        N              5.00    14.00700     N ( 1.00)

     12 Sym. Ops. (no inversion) found

[...]

     site n.     atom                  positions (alat units)
         1           Ga  tau(   1) = (   0.5000000   0.2886751   0.0000000  )
         2           N   tau(   2) = (   0.5000000   0.2886751   0.6135889  )
         3           Ga  tau(   3) = (  -0.0000000   0.5773503   0.8149500  )
         4           N   tau(   4) = (  -0.0000000   0.5773503   1.4285389  )

     number of k points=     8
                       cart. coord. in units 2pi/alat
        k(    1) = (   0.0000000   0.0000000   0.0000000), wk =   0.2500000
        k(    2) = (   0.0000000   0.0000000  -0.3067673), wk =   0.0000000
        k(    3) = (   0.0000000   0.0000000  -0.3067673), wk =   0.2500000
        k(    4) = (   0.0000000   0.0000000  -0.6135346), wk =   0.0000000
        k(    5) = (   0.0000000  -0.5773503   0.0000000), wk =   0.7500000
        k(    6) = (   0.0000000  -0.5773503  -0.3067673), wk =   0.0000000
        k(    7) = (   0.0000000  -0.5773503  -0.3067673), wk =   0.7500000
        k(    8) = (   0.0000000  -0.5773503  -0.6135346), wk =   0.0000000

     Check: negative core charge=   -0.000043

     The potential is recalculated from file :
     ./_ph0/gan.q_2/gan.save/charge-density

     Starting wfcs are   26 atomic wfcs

     Band Structure Calculation
     Davidson diagonalization with overlap

     ethr =  2.78E-11,  avg # of iterations = 12.5

     End of band structure calculation

          k = 0.0000 0.0000 0.0000 (  1279 PWs)   bands (ev):

    -5.1222  -5.1218  -4.1483  -4.1483  -4.1119  -4.1119  -3.9178  -3.9044
    -3.9044  -3.5337  -3.5337  -1.4874   3.6171  10.2039  10.2039  11.2396
    11.3819  11.3819

[...]

     highest occupied level (ev):    11.3819

     Writing output data file ./_ph0/gan.q_2/gan.save/

[...]

     Mode symmetry, C_6v (6mm)  point group:

     freq (   1-   2) =        152.8  [cm-1]   --> E_1
     freq (   3-   4) =        152.8  [cm-1]   --> E_2
     freq (   5-   5) =        293.5  [cm-1]   --> A_1
     freq (   6-   6) =        293.5  [cm-1]   --> B_1
     freq (   7-   8) =        619.3  [cm-1]   --> E_1
     freq (   9-  10) =        619.3  [cm-1]   --> E_2
     freq (  11-  11) =        726.9  [cm-1]   --> A_1
     freq (  12-  12) =        726.9  [cm-1]   --> B_1

[...]

     Mode symmetry, C_2v (mm2)  point group:

[...]

     Representation #  12 mode #  12

[...]

     freq (   1-   1) =        176.3  [cm-1]   --> A_2  D_2  S_2
     freq (   2-   2) =        234.8  [cm-1]   --> B_1  D_3  S_3
     freq (   3-   3) =        262.2  [cm-1]   --> B_2  D_4  S_4
     freq (   4-   4) =        293.2  [cm-1]   --> A_1  D_1  S_1
     freq (   5-   5) =        416.1  [cm-1]   --> B_1  D_3  S_3
     freq (   6-   6) =        444.7  [cm-1]   --> A_1  D_1  S_1
     freq (   7-   7) =        562.0  [cm-1]   --> A_2  D_2  S_2
     freq (   8-   8) =        575.7  [cm-1]   --> B_2  D_4  S_4
     freq (   9-   9) =        580.0  [cm-1]   --> B_1  D_3  S_3
     freq (  10-  10) =        612.7  [cm-1]   --> A_1  D_1  S_1
     freq (  11-  11) =        672.0  [cm-1]   --> B_1  D_3  S_3
     freq (  12-  12) =        680.8  [cm-1]   --> A_1  D_1  S_1

     Calculation of q =    0.0000000  -0.5773503  -0.3067673

     Using Slab Decomposition

     Title:
     ---

     bravais-lattice index     =            4
     lattice parameter (alat)  =       5.9612  a.u.
     unit-cell volume          =     299.0148 (a.u.)^3
     number of atoms/cell      =            4
     number of atomic types    =            2
     number of electrons       =        36.00
     number of Kohn-Sham states=           18
     kinetic-energy cutoff     =      40.0000  Ry
     charge density cutoff     =     160.0000  Ry
     Exchange-correlation= PZ
                           (   1   1   0   0   0   0   0)

[...]

     atomic species   valence    mass     pseudopotential
        Ga            13.00    69.72300     Ga( 1.00)
        N              5.00    14.00700     N ( 1.00)

     12 Sym. Ops. (no inversion) found

[...]

     site n.     atom                  positions (alat units)
         1           Ga  tau(   1) = (   0.5000000   0.2886751   0.0000000  )
         2           N   tau(   2) = (   0.5000000   0.2886751   0.6135889  )
         3           Ga  tau(   3) = (  -0.0000000   0.5773503   0.8149500  )
         4           N   tau(   4) = (  -0.0000000   0.5773503   1.4285389  )

     number of k points=    12
                       cart. coord. in units 2pi/alat
        k(    1) = (   0.0000000   0.0000000   0.0000000), wk =   0.2500000
        k(    2) = (   0.0000000  -0.5773503  -0.3067673), wk =   0.0000000
        k(    3) = (   0.0000000   0.0000000  -0.3067673), wk =   0.2500000
        k(    4) = (   0.0000000  -0.5773503  -0.6135346), wk =   0.0000000
        k(    5) = (   0.0000000  -0.5773503   0.0000000), wk =   0.2500000
        k(    6) = (   0.0000000  -1.1547005  -0.3067673), wk =   0.0000000
        k(    7) = (   0.0000000  -0.5773503  -0.3067673), wk =   0.2500000
        k(    8) = (   0.0000000  -1.1547005  -0.6135346), wk =   0.0000000
        k(    9) = (   0.5000000   0.2886751   0.0000000), wk =   0.5000000
        k(   10) = (   0.5000000  -0.2886751  -0.3067673), wk =   0.0000000
        k(   11) = (   0.5000000   0.2886751  -0.3067673), wk =   0.5000000
        k(   12) = (   0.5000000  -0.2886751  -0.6135346), wk =   0.0000000

     Check: negative core charge=   -0.000043

     The potential is recalculated from file :
     ./_ph0/gan.q_4/gan.save/charge-density

     Starting wfcs are   26 atomic wfcs

     Band Structure Calculation
     Davidson diagonalization with overlap

     ethr =  2.78E-11,  avg # of iterations = 12.3

     End of band structure calculation

[...]

          k = 0.5000-0.2887-0.6135 (  1276 PWs)   bands (ev):

    -5.1153  -4.7343  -4.3252  -4.2164  -4.0764  -3.8885  -3.7018  -3.6339
    -3.6155  -3.5434  -1.5820  -0.5792   4.2826   5.5101   6.6453   8.2721
     8.8451  10.2551

     highest occupied level (ev):    11.3819

     Writing output data file ./_ph0/gan.q_4/gan.save/

     ---

     bravais-lattice index     =            4
     lattice parameter (alat)  =       5.9612  a.u.
     unit-cell volume          =     299.0148 (a.u.)^3
     number of atoms/cell      =            4
     number of atomic types    =            2
     kinetic-energy cut-off    =      40.0000  Ry
     charge density cut-off    =     160.0000  Ry
     convergence threshold     =      1.0E-14
     beta                      =       0.7000
     number of iterations used =            4
     Exchange-correlation= PZ
                           (   1   1   0   0   0   0   0)

     celldm(1)=    5.96120  celldm(2)=    0.00000  celldm(3)=    1.62990
     celldm(4)=    0.00000  celldm(5)=    0.00000  celldm(6)=    0.00000

     crystal axes: (cart. coord. in units of alat)
               a(1) = (  1.0000  0.0000  0.0000 )
               a(2) = ( -0.5000  0.8660  0.0000 )
               a(3) = (  0.0000  0.0000  1.6299 )

     reciprocal axes: (cart. coord. in units 2 pi/alat)
               b(1) = (  1.0000  0.5774 -0.0000 )
               b(2) = (  0.0000  1.1547  0.0000 )
               b(3) = (  0.0000 -0.0000  0.6135 )

     Atoms inside the unit cell:

     Cartesian axes

     site n.  atom      mass           positions (alat units)
        1     Ga  69.7230   tau(    1) = (    0.50000    0.28868    0.00000  )
        2     N   14.0070   tau(    2) = (    0.50000    0.28868    0.61359  )
        3     Ga  69.7230   tau(    3) = (   -0.00000    0.57735    0.81495  )
        4     N   14.0070   tau(    4) = (   -0.00000    0.57735    1.42854  )

     Computing dynamical matrix for
                    q = (   0.0000000  -0.5773503  -0.3067673 )

      5 Sym.Ops. (with q -> -q+G )

     G cutoff =  144.0216  (   2544 G-vectors)     FFT grid: ( 25, 25, 40)
     number of k points=    12

     PseudoPot. # 1 for Ga read from file:
     ./Ga-LDA.upf
     MD5 check sum: 876592653117dae7654c8939816812b6
     Pseudo is Norm-conserving + core correction, Zval = 13.0
     Generated using ONCVPSP code by D. R. Hamann
     Using radial grid of 1858 points,  6 beta functions with:
                l(1) =   0
                l(2) =   0
                l(3) =   1
                l(4) =   1
                l(5) =   2
                l(6) =   2

     PseudoPot. # 2 for N  read from file:
     ./N-LDA.upf
     MD5 check sum: 866fc8d98626a2fc4e4cda8444e99222
     Pseudo is Norm-conserving + core correction, Zval =  5.0
     Generated using ONCVPSP code by D. R. Hamann
     Using radial grid of 1058 points,  4 beta functions with:
                l(1) =   0
                l(2) =   0
                l(3) =   1
                l(4) =   1

[...]

     Atomic displacements:
     There are    6 irreducible representations

[...]

     Representation     6      2 modes -  To be done

     Alpha used in Ewald sum =   1.5000

[...]

     Representation #   6 modes #  11  12

     Self-consistent Calculation

[...]

      thresh= 1.080E-08 alpha_mix =  0.700 |ddv_scf|^2 =  7.303E-16

     End of self-consistent calculation

     Convergence has been achieved

     Number of q in the star =    3
     List of q in the star:
          1   0.000000000  -0.577350269  -0.306767286
          2   0.500000000   0.288675135  -0.306767286
          3  -0.500000000   0.288675135  -0.306767286

     Diagonalizing the dynamical matrix

     q = (    0.000000000  -0.577350269  -0.306767286 )

     freq (    1) =       5.830121 [THz] =     194.471896 [cm-1]
     freq (    2) =       5.830121 [THz] =     194.471896 [cm-1]
     freq (    3) =       7.194056 [THz] =     239.967864 [cm-1]
     freq (    4) =       7.194056 [THz] =     239.967864 [cm-1]
     freq (    5) =      13.684178 [THz] =     456.455037 [cm-1]
     freq (    6) =      13.684178 [THz] =     456.455037 [cm-1]
     freq (    7) =      17.268924 [THz] =     576.029284 [cm-1]
     freq (    8) =      17.268924 [THz] =     576.029284 [cm-1]
     freq (    9) =      17.585862 [THz] =     586.601216 [cm-1]
     freq (   10) =      17.585862 [THz] =     586.601216 [cm-1]
     freq (   11) =      19.983835 [THz] =     666.588988 [cm-1]
     freq (   12) =      19.983835 [THz] =     666.588988 [cm-1]

     Mode symmetry, C_2v (mm2)  point group:

     freq (   1-   1) =        194.5  [cm-1]   --> A_1  D_1  S_1
     freq (   2-   2) =        194.5  [cm-1]   --> B_1  D_3  S_3
     freq (   3-   3) =        240.0  [cm-1]   --> A_2  D_2  S_2
     freq (   4-   4) =        240.0  [cm-1]   --> B_2  D_4  S_4
     freq (   5-   5) =        456.5  [cm-1]   --> A_1  D_1  S_1
     freq (   6-   6) =        456.5  [cm-1]   --> B_1  D_3  S_3
     freq (   7-   7) =        576.0  [cm-1]   --> A_2  D_2  S_2
     freq (   8-   8) =        576.0  [cm-1]   --> B_2  D_4  S_4
     freq (   9-   9) =        586.6  [cm-1]   --> A_1  D_1  S_1
     freq (  10-  10) =        586.6  [cm-1]   --> B_1  D_3  S_3
     freq (  11-  11) =        666.6  [cm-1]   --> A_1  D_1  S_1
     freq (  12-  12) =        666.6  [cm-1]   --> B_1  D_3  S_3

     General routines

     Parallel routines

     INITIALIZATION:

     DYNAMICAL MATRIX:

      General routines

   This run was terminated on:  16:54:57  22Nov2021

   JOB DONE.