     Program PWSCF v.7.0 starts on  6Jul2022 at 13: 0:43

     R & G space division:  proc/nbgrp/npool/nimage =      16

     Waiting for input...
     Reading input from standard input

     Current dimensions of program PWSCF are:
     Max number of different atomic species (ntypx) = 10
     Max number of k-points (npk) =  40000
     Max angular momentum in pseudopotentials (lmaxx) =  4
     Message from routine read_pp_mesh:
     mismatch in mesh size, discarding the one in header

     Parameters for Dispersion (Grimme-D2) Correction:
       atom      VdW radius       C_6

        Cu         2.952        374.666
     Found identity + ( -0.5000  0.0000  0.0000) symmetry
     This is a supercell, fractional translations are disabled

     Subspace diagonalization in iterative solution of the eigenvalue problem:
     a serial algorithm will be used

     Using Slab Decomposition

     bravais-lattice index     =           14
     lattice parameter (alat)  =       9.6476  a.u.
     unit-cell volume          =    3998.9451 (a.u.)^3
     number of atoms/cell      =           16
     number of atomic types    =            1
     number of electrons       =       304.00 (up: 152.00, down: 152.00)
     number of Kohn-Sham states=          182
     kinetic-energy cutoff     =      80.0000  Ry
     charge density cutoff     =     320.0000  Ry
     scf convergence threshold =      1.0E-06
     mixing beta               =       0.7000
     number of iterations used =            8  plain     mixing
     Exchange-correlation= SLA PW PBX PBC
                           (   1   4   3   4   0   0   0)

     celldm(1)=   9.647638  celldm(2)=   1.000000  celldm(3)=   5.142234
     celldm(4)=   0.000000  celldm(5)=   0.000000  celldm(6)=   0.500000

     crystal axes: (cart. coord. in units of alat)
               a(1) = (   1.000000   0.000000   0.000000 )
               a(2) = (   0.500000   0.866025   0.000000 )
               a(3) = (   0.000000   0.000000   5.142234 )

     reciprocal axes: (cart. coord. in units 2 pi/alat)
               b(1) = (  1.000000 -0.577350  0.000000 )
               b(2) = (  0.000000  1.154701  0.000000 )
               b(3) = (  0.000000  0.000000  0.194468 )

     PseudoPot. # 1 for Cu read from file:
     /mnt/ceph/glen3534/Prep/Adsorption/Cu/Cu.save/Cu.upf
     MD5 check sum: 69e544ce53ba1f79758756dbb2f8fbdd
     Pseudo is Projector augmented-wave + core cor, Zval = 19.0
     Generated using ATOMPAW code
     Shape of augmentation charge: SINC**2
     Using radial grid of 2342 points,  6 beta functions with:
                l(1) =   0
                l(2) =   0
                l(3) =   1
                l(4) =   1
                l(5) =   2
                l(6) =   2
     Q(r) pseudized with 0 coefficients

     atomic species   valence    mass     pseudopotential
        Cu            19.00    63.54600     Cu( 1.00)

     Starting magnetic structure
     atomic species   magnetization
        Cu           0.000

      6 Sym. Ops. (no inversion) found

                                    s                        frac. trans.

      isym =  1     identity

 cryst.   s( 1) = (     1          0          0      )
                  (     0          1          0      )
                  (     0          0          1      )

 cart.    s( 1) = (  1.0000000  0.0000000  0.0000000 )
                  (  0.0000000  1.0000000  0.0000000 )
                  (  0.0000000  0.0000000  1.0000000 )

      isym =  2     120 deg rotation - cryst. axis [0,0,1]

[...]

      isym =  3     120 deg rotation - cryst. axis [0,0,-1]

[...]

      isym =  4     inv. 180 deg rotation - cart. axis [1,0,0]

[...]

      isym =  5     inv. 180 deg rotation - cryst. axis [0,1,0]

[...]

      isym =  6     inv. 180 deg rotation - cryst. axis [1,1,0]

 cryst.   s( 6) = (     1         -1          0      )
                  (     0         -1          0      )
                  (     0          0          1      )

 cart.    s( 6) = (  0.5000000 -0.8660254  0.0000000 )
                  ( -0.8660254 -0.5000000  0.0000000 )
                  (  0.0000000  0.0000000  1.0000000 )

     point group C_3v (3m)
     there are  3 classes
     the character table:

       E     2C3   3s_v
A_1    1.00  1.00  1.00
A_2    1.00  1.00 -1.00
E      2.00 -1.00  0.00

     the symmetry operations in each class and the name of the first element:

     E        1
          identity
     2C3      2    3
          120 deg rotation - cryst. axis [0,0,1]
     3s_v     4    5    6
          inv. 180 deg rotation - cart. axis [1,0,0]

   Cartesian axes

     site n.     atom                  positions (alat units)
         1           Cu  tau(   1) = (   0.0000000   0.0000000   0.0000000  )
         2           Cu  tau(   2) = (   0.5000001   0.0000000   0.0000000  )
         3           Cu  tau(   3) = (   0.2500000   0.4330128   0.0000000  )
         4           Cu  tau(   4) = (   0.7500001   0.4330128   0.0000000  )
         5           Cu  tau(   5) = (   0.2500000   0.1443376   0.4082484  )
         6           Cu  tau(   6) = (   0.7500001   0.1443376   0.4082484  )
         7           Cu  tau(   7) = (   0.5000001   0.5773504   0.4082484  )
         8           Cu  tau(   8) = (   1.0000002   0.5773504   0.4082484  )
         9           Cu  tau(   9) = (  -0.0000000   0.2886752   0.8164967  )
        10           Cu  tau(  10) = (   0.5000001   0.2886752   0.8164967  )
        11           Cu  tau(  11) = (   0.2500000   0.7216880   0.8164967  )
        12           Cu  tau(  12) = (   0.7500001   0.7216880   0.8164967  )
        13           Cu  tau(  13) = (   0.0000000   0.0000000   1.2247451  )
        14           Cu  tau(  14) = (   0.5000001   0.0000000   1.2247451  )
        15           Cu  tau(  15) = (   0.2500000   0.4330128   1.2247451  )
        16           Cu  tau(  16) = (   0.7500001   0.4330128   1.2247451  )

   Crystallographic axes

     site n.     atom                  positions (cryst. coord.)
         1           Cu  tau(   1) = (  0.0000000  0.0000000  0.0000000  )
         2           Cu  tau(   2) = (  0.5000001  0.0000000  0.0000000  )
         3           Cu  tau(   3) = ( -0.0000000  0.5000001  0.0000000  )
         4           Cu  tau(   4) = (  0.5000001  0.5000001  0.0000000  )
         5           Cu  tau(   5) = (  0.1666667  0.1666667  0.0793912  )
         6           Cu  tau(   6) = (  0.6666668  0.1666667  0.0793912  )
         7           Cu  tau(   7) = (  0.1666667  0.6666668  0.0793912  )
         8           Cu  tau(   8) = (  0.6666668  0.6666668  0.0793912  )
         9           Cu  tau(   9) = ( -0.1666667  0.3333334  0.1587825  )
        10           Cu  tau(  10) = (  0.3333334  0.3333334  0.1587825  )
        11           Cu  tau(  11) = ( -0.1666667  0.8333335  0.1587825  )
        12           Cu  tau(  12) = (  0.3333334  0.8333335  0.1587825  )
        13           Cu  tau(  13) = (  0.0000000  0.0000000  0.2381737  )
        14           Cu  tau(  14) = (  0.5000001  0.0000000  0.2381737  )
        15           Cu  tau(  15) = ( -0.0000000  0.5000001  0.2381737  )
        16           Cu  tau(  16) = (  0.5000001  0.5000001  0.2381737  )

     number of k points=     4  Gaussian smearing, width (Ry)=  0.0100
                       cart. coord. in units 2pi/alat
        k(    1) = (   0.0000000   0.0000000   0.0000000), wk =   0.0625000
        k(    2) = (   0.0000000   0.2886751   0.0000000), wk =   0.3750000
        k(    3) = (   0.0000000  -0.5773503   0.0000000), wk =   0.1875000
        k(    4) = (   0.2500000  -0.7216878   0.0000000), wk =   0.3750000

                       cryst. coord.
        k(    1) = (   0.0000000   0.0000000   0.0000000), wk =   0.0625000
        k(    2) = (   0.0000000   0.2500000   0.0000000), wk =   0.3750000
        k(    3) = (   0.0000000  -0.5000000   0.0000000), wk =   0.1875000
        k(    4) = (   0.2500000  -0.5000000   0.0000000), wk =   0.3750000

     Check: negative core charge=   -0.000003
     Generating pointlists ...
     new r_m :   0.2062 (alat units)  1.9898 (a.u.) for type    1

     Initial potential from superposition of free atoms

     starting charge     303.9947, renormalised to     304.0000

     negative rho (up, down):  4.048E-03 4.048E-03
     Starting wfcs are  288 randomized atomic wfcs
     Checking if some PAW data can be deallocated...

     Self-consistent Calculation

     iteration #  1     ecut=    80.00 Ry     beta= 0.70
     Davidson diagonalization with overlap

     ethr =  1.00E-02,  avg # of iterations = 14.1

     negative rho (up, down):  9.266E-04 1.086E-03

     total energy              =   -7735.94984442 Ry
     estimated scf accuracy    <      44.10960738 Ry

     total magnetization       =     0.00 Bohr mag/cell
     absolute magnetization    =     0.89 Bohr mag/cell

[...]

     c_bands:  2 eigenvalues not converged
     ethr =  3.58E-05,  avg # of iterations =  6.6

[...]

     total energy              =   -7790.25080101 Ry
     estimated scf accuracy    <       0.00000109 Ry

[...]

     iteration # 33     ecut=    80.00 Ry     beta= 0.70
     Davidson diagonalization with overlap

     ethr =  3.58E-10,  avg # of iterations =  2.0

     negative rho (up, down):  4.178E-03 4.178E-03

     Magnetic moment per site  (integrated on atomic sphere of radius R)
     atom   1 (R=0.206)  charge= 17.7446  magn= -0.0000
     atom   2 (R=0.206)  charge= 17.7445  magn=  0.0000
     atom   3 (R=0.206)  charge= 17.7445  magn=  0.0000
     atom   4 (R=0.206)  charge= 17.7445  magn=  0.0000
     atom   5 (R=0.206)  charge= 17.8115  magn=  0.0000
     atom   6 (R=0.206)  charge= 17.8115  magn=  0.0000
     atom   7 (R=0.206)  charge= 17.8115  magn=  0.0000
     atom   8 (R=0.206)  charge= 17.8113  magn= -0.0000
     atom   9 (R=0.206)  charge= 17.8111  magn=  0.0000
     atom  10 (R=0.206)  charge= 17.8113  magn= -0.0000
     atom  11 (R=0.206)  charge= 17.8111  magn=  0.0000
     atom  12 (R=0.206)  charge= 17.8111  magn=  0.0000
     atom  13 (R=0.206)  charge= 17.7440  magn=  0.0000
     atom  14 (R=0.206)  charge= 17.7441  magn= -0.0000
     atom  15 (R=0.206)  charge= 17.7441  magn= -0.0000
     atom  16 (R=0.206)  charge= 17.7441  magn= -0.0000

     End of self-consistent calculation

 ------ SPIN UP ------------

          k = 0.0000 0.0000 0.0000 ( 48435 PWs)   bands (ev):

  -109.5253-109.5182-109.5136-109.5136-109.5134-109.5111-109.5111-109.5111
  -109.3111-109.3105-109.3019-109.3016-109.3016-109.3012-109.3012-109.3010
   -66.9405 -66.9404 -66.9404 -66.9357 -66.9357 -66.9357 -66.9343 -66.8987
   -66.8987 -66.8987 -66.8842 -66.8842 -66.8842 -66.8807 -66.8771 -66.8770
   -66.8770 -66.8644 -66.8644 -66.8644 -66.8539 -66.8539 -66.8457 -66.8457
   -66.7616 -66.7616 -66.7615 -66.7611 -66.7610 -66.7610 -66.7016 -66.7016
   -66.7015 -66.7011 -66.7011 -66.7011 -66.6809 -66.6809 -66.6804 -66.6804
   -66.6178 -66.6170 -66.6098 -66.6095 -66.6095 -66.6090 -66.6090 -66.6089
    -5.8644  -4.6100  -2.9308  -2.0731  -1.7693  -1.7693  -1.7693  -1.6468
    -1.6468  -1.6468  -1.2529  -1.2529  -1.2529  -1.2110  -1.2110  -1.2110
    -1.1455  -1.1455  -1.1454  -0.7675  -0.7675  -0.7675  -0.1826  -0.1826
    -0.1826  -0.0021  -0.0007  -0.0007  -0.0007   0.0298   0.1131   0.1131
     0.1648   0.1648   0.2176   0.2176   0.2176   0.3092   0.3306   0.3306
     0.3694   0.3694   0.3694   0.3765   0.3765   0.6713   0.6713   0.6713
     0.6911   0.6911   0.6911   0.9251   0.9251   1.0542   1.0542   1.1717
     1.1717   1.1717   1.2333   1.2333   1.2333   1.3304   1.3304   1.4311
     1.4311   1.4311   1.4418   1.4418   1.4419   1.4767   1.4767   1.5034
     1.5034   1.5034   1.5647   1.5647   1.5647   1.6829   1.6829   1.6829
     1.6911   1.6911   1.6912   1.8445   2.8176   2.8309   2.8309   2.8309
     3.8251   3.8251   3.8251   4.3957   4.3957   4.3957   4.6023   4.6023
     4.6023   7.1188   7.1416   7.3737   7.3737   7.3737   7.8141   8.1463
     8.2139   8.2140   8.2140   9.1836   9.1836   9.1836   9.4870   9.5756
    10.3914  10.3914  10.3914  11.4550  11.9718  11.9732

     occupation numbers
     1.0000   1.0000   1.0000   1.0000   1.0000   1.0000   1.0000   1.0000
     1.0000   1.0000   1.0000   1.0000   1.0000   1.0000   1.0000   1.0000
     1.0000   1.0000   1.0000   1.0000   1.0000   1.0000   1.0000   1.0000
     1.0000   1.0000   1.0000   1.0000   1.0000   1.0000   1.0000   1.0000
     1.0000   1.0000   1.0000   1.0000   1.0000   1.0000   1.0000   1.0000
     1.0000   1.0000   1.0000   1.0000   1.0000   1.0000   1.0000   1.0000
     1.0000   1.0000   1.0000   1.0000   1.0000   1.0000   1.0000   1.0000
     1.0000   1.0000   1.0000   1.0000   1.0000   1.0000   1.0000   1.0000
     1.0000   1.0000   1.0000   1.0000   1.0000   1.0000   1.0000   1.0000
     1.0000   1.0000   1.0000   1.0000   1.0000   1.0000   1.0000   1.0000
     1.0000   1.0000   1.0000   1.0000   1.0000   1.0000   1.0000   1.0000
     1.0000   1.0000   1.0000   1.0000   1.0000   1.0000   1.0000   1.0000
     1.0000   1.0000   1.0000   1.0000   1.0000   1.0000   1.0000   1.0000
     1.0000   1.0000   1.0000   1.0000   1.0000   1.0000   1.0000   1.0000
     1.0000   1.0000   1.0000   1.0000   1.0000   1.0000   1.0000   1.0000
     1.0000   1.0000   1.0000   1.0000   1.0000   1.0000   1.0000   1.0000
     1.0000   1.0000   1.0000   1.0000   1.0000   1.0000   1.0000   1.0000
     1.0000   1.0000   1.0000   1.0000   1.0000   1.0000   1.0000   1.0000
     1.0000   1.0000   1.0000   1.0000   0.9643   0.9520   0.9520   0.9520
     0.0000   0.0000   0.0000   0.0000   0.0000   0.0000   0.0000   0.0000
     0.0000   0.0000   0.0000   0.0000   0.0000   0.0000   0.0000   0.0000
     0.0000   0.0000   0.0000   0.0000   0.0000   0.0000   0.0000   0.0000
     0.0000   0.0000   0.0000   0.0000   0.0000   0.0000

[...]

 ------ SPIN DOWN ----------

[...]

          k = 0.2500-0.7217 0.0000 ( 48288 PWs)   bands (ev):

  -109.5209-109.5169-109.5166-109.5152-109.5128-109.5125-109.5118-109.5108
  -109.3074-109.3068-109.3042-109.3039-109.3036-109.3034-109.3007-109.3002
   -66.9263 -66.9262 -66.9229 -66.9228 -66.9225 -66.9150 -66.9149 -66.9059
   -66.8989 -66.8988 -66.8971 -66.8926 -66.8851 -66.8827 -66.8797 -66.8795
   -66.8783 -66.8733 -66.8732 -66.8730 -66.8644 -66.8644 -66.8626 -66.8551
   -66.7476 -66.7471 -66.7375 -66.7375 -66.7370 -66.7370 -66.7264 -66.7259
   -66.7119 -66.7113 -66.7006 -66.7006 -66.7001 -66.7001 -66.6904 -66.6899
   -66.6145 -66.6138 -66.6117 -66.6115 -66.6110 -66.6109 -66.6087 -66.6081
    -4.4242  -3.2678  -2.8149  -2.8149  -2.0104  -2.0104  -1.7867  -1.2347
    -1.2347  -1.1942  -1.0911  -1.0727  -0.8681  -0.8681  -0.8410  -0.7967
    -0.6566  -0.6281  -0.6281  -0.5702  -0.5068  -0.5067  -0.4598  -0.4508
    -0.3600  -0.3599  -0.3486  -0.2704  -0.1392  -0.1391  -0.1239  -0.0875
     0.0114   0.0498   0.0776   0.1203   0.1203   0.1582   0.1582   0.2464
     0.2465   0.2494   0.2857   0.3043   0.3317   0.3317   0.4132   0.4377
     0.4767   0.4855   0.4856   0.5564   0.6622   0.6670   0.7027   0.7272
     0.7313   0.7313   0.8496   0.8497   0.8647   0.9592   0.9647   1.0237
     1.0237   1.0438   1.0924   1.1472   1.1473   1.2092   1.2183   1.2828
     1.3432   1.3432   1.3449   1.3449   1.3803   1.4171   1.4188   1.4672
     1.4672   1.4802   1.6189   1.6189   1.7396   1.7396   1.8576   2.8614
     2.8614   3.5339   5.0995   5.0995   5.3122   5.3441   5.7049   6.2984
     6.8517   7.5329   7.5329   8.2694   8.3842   8.5894   9.0308   9.2588
     9.3884   9.4381  10.0153  10.0153  10.0775  10.5070  10.5070  10.8863
    10.8966  11.0223  11.0631  11.0631  11.2084  11.2085

     occupation numbers
     1.0000   1.0000   1.0000   1.0000   1.0000   1.0000   1.0000   1.0000
     1.0000   1.0000   1.0000   1.0000   1.0000   1.0000   1.0000   1.0000
     1.0000   1.0000   1.0000   1.0000   1.0000   1.0000   1.0000   1.0000
     1.0000   1.0000   1.0000   1.0000   1.0000   1.0000   1.0000   1.0000
     1.0000   1.0000   1.0000   1.0000   1.0000   1.0000   1.0000   1.0000
     1.0000   1.0000   1.0000   1.0000   1.0000   1.0000   1.0000   1.0000
     1.0000   1.0000   1.0000   1.0000   1.0000   1.0000   1.0000   1.0000
     1.0000   1.0000   1.0000   1.0000   1.0000   1.0000   1.0000   1.0000
     1.0000   1.0000   1.0000   1.0000   1.0000   1.0000   1.0000   1.0000
     1.0000   1.0000   1.0000   1.0000   1.0000   1.0000   1.0000   1.0000
     1.0000   1.0000   1.0000   1.0000   1.0000   1.0000   1.0000   1.0000
     1.0000   1.0000   1.0000   1.0000   1.0000   1.0000   1.0000   1.0000
     1.0000   1.0000   1.0000   1.0000   1.0000   1.0000   1.0000   1.0000
     1.0000   1.0000   1.0000   1.0000   1.0000   1.0000   1.0000   1.0000
     1.0000   1.0000   1.0000   1.0000   1.0000   1.0000   1.0000   1.0000
     1.0000   1.0000   1.0000   1.0000   1.0000   1.0000   1.0000   1.0000
     1.0000   1.0000   1.0000   1.0000   1.0000   1.0000   1.0000   1.0000
     1.0000   1.0000   1.0000   1.0000   1.0000   1.0000   1.0000   1.0000
     1.0000   1.0000   1.0000   1.0000   1.0000   1.0000   1.0000   0.9110
     0.9110   0.0000   0.0000   0.0000   0.0000   0.0000   0.0000   0.0000
     0.0000   0.0000   0.0000   0.0000   0.0000   0.0000   0.0000   0.0000
     0.0000   0.0000   0.0000   0.0000   0.0000   0.0000   0.0000   0.0000
     0.0000   0.0000   0.0000   0.0000   0.0000   0.0000

     the spin up/dw Fermi energies are     2.9910    2.9910 ev

!    total energy              =   -7790.25080064 Ry

     total all-electron energy =     -7790.250801 Ry
     estimated scf accuracy    <       0.00000048 Ry
     smearing contrib. (-TS)   =      -0.00732314 Ry
     internal energy E=F+TS    =   -7790.24347750 Ry

     The total energy is F=E-TS. E is the sum of the following terms:
     one-electron contribution =  -60740.58867532 Ry
     hartree contribution      =   29503.22113401 Ry
     xc contribution           =    -505.61178679 Ry
     ewald contribution        =   24669.10783065 Ry
     Dispersion Correction     =      -0.34825439 Ry
     one-center paw contrib.   =    -716.02372566 Ry
      -> PAW hartree energy AE =     328.83817510 Ry
      -> PAW hartree energy PS =    -270.03836055 Ry
      -> PAW xc energy AE      =    -134.20622084 Ry
      -> PAW xc energy PS      =      30.65232072 Ry
      -> total E_H with PAW    =   29562.02094856 Ry
      -> total E_XC with PAW   =    -609.16568692 Ry

     total magnetization       =     0.00 Bohr mag/cell
     absolute magnetization    =     0.00 Bohr mag/cell

     convergence has been achieved in  33 iterations

     Writing all to output data dir ./Cu.save/

     General routines

     Parallel routines

     PAW routines

   This run was terminated on:  13:58:12   6Jul2022

   JOB DONE.