     Program PWSCF v.6.0 (svn rev. 13079) starts on 26Jun2022 at  3:37:36

     Current dimensions of program PWSCF are:
     Max number of different atomic species (ntypx) = 10
     Max number of k-points (npk) =  40000
     Max angular momentum in pseudopotentials (lmaxx) =  3
               file Cu.upf: wavefunction(s)  Xn Xn Xn Xn Xn Xn renormalized

     Parameters for Dispersion Correction:
       atom      VdW radius       C_6

        Cu         2.952        374.666

     Subspace diagonalization in iterative solution of the eigenvalue problem:
     a serial algorithm will be used

     Found symmetry operation: I + ( -0.5000  0.0000  0.0000)
     This is a supercell, fractional translations are disabled

     bravais-lattice index     =           14
     lattice parameter (alat)  =       9.6476  a.u.
     unit-cell volume          =    3998.9452 (a.u.)^3
     number of atoms/cell      =           16
     number of atomic types    =            1
     number of electrons       =       304.00 (up: 152.00, down: 152.00)
     number of Kohn-Sham states=          310
     kinetic-energy cutoff     =      80.0000  Ry
     charge density cutoff     =     320.0000  Ry
     convergence threshold     =      1.0E-06
     mixing beta               =       0.7000
     number of iterations used =            8  plain     mixing
     Exchange-correlation      = SLA PW PBX PBC ( 1  4  3  4 0 0)

     celldm(1)=   9.647638  celldm(2)=   1.000000  celldm(3)=   5.142234
     celldm(4)=   0.000000  celldm(5)=   0.000000  celldm(6)=   0.500000

     crystal axes: (cart. coord. in units of alat)
               a(1) = (   1.000000   0.000000   0.000000 )
               a(2) = (   0.500000   0.866025   0.000000 )
               a(3) = (   0.000000   0.000000   5.142234 )

     reciprocal axes: (cart. coord. in units 2 pi/alat)
               b(1) = (  1.000000 -0.577350  0.000000 )
               b(2) = (  0.000000  1.154701  0.000000 )
               b(3) = (  0.000000  0.000000  0.194468 )

     PseudoPot. # 1 for Cu read from file:
     /home/drewglenna/Documents/Espresso/q-e-qe-6.8/pseudo/PAW/Cu.upf
     MD5 check sum: 69e544ce53ba1f79758756dbb2f8fbdd
     Pseudo is Projector augmented-wave + core cor, Zval = 19.0
     Generated using ATOMPAW code
     Shape of augmentation charge: SINC**2
     Using radial grid of 2342 points,  6 beta functions with:
                l(1) =   0
                l(2) =   0
                l(3) =   1
                l(4) =   1
                l(5) =   2
                l(6) =   2
     Q(r) pseudized with 0 coefficients

     atomic species   valence    mass     pseudopotential
        Cu            19.00    63.54600     Cu( 1.00)

     Starting magnetic structure
     atomic species   magnetization
        Cu           0.000

      6 Sym. Ops. (no inversion) found

                                    s                        frac. trans.

      isym =  1     identity

 cryst.   s( 1) = (     1          0          0      )
                  (     0          1          0      )
                  (     0          0          1      )

 cart.    s( 1) = (  1.0000000  0.0000000  0.0000000 )
                  (  0.0000000  1.0000000  0.0000000 )
                  (  0.0000000  0.0000000  1.0000000 )

      isym =  2     120 deg rotation - cryst. axis [0,0,1]

[...]

      isym =  3     120 deg rotation - cryst. axis [0,0,-1]

[...]

      isym =  4     inv. 180 deg rotation - cart. axis [1,0,0]

[...]

      isym =  5     inv. 180 deg rotation - cryst. axis [0,1,0]

[...]

      isym =  6     inv. 180 deg rotation - cryst. axis [1,1,0]

 cryst.   s( 6) = (     1         -1          0      )
                  (     0         -1          0      )
                  (     0          0          1      )

 cart.    s( 6) = (  0.5000000 -0.8660254  0.0000000 )
                  ( -0.8660254 -0.5000000  0.0000000 )
                  (  0.0000000  0.0000000  1.0000000 )

     point group C_3v (3m)
     there are  3 classes
     the character table:

       E     2C3   3s_v
A_1    1.00  1.00  1.00
A_2    1.00  1.00 -1.00
E      2.00 -1.00  0.00

     the symmetry operations in each class and the name of the first element:

     E        1
          identity
     2C3      2    3
          120 deg rotation - cryst. axis [0,0,1]
     3s_v     4    5    6
          inv. 180 deg rotation - cart. axis [1,0,0]

   Cartesian axes

     site n.     atom                  positions (alat units)
         1           Cu  tau(   1) = (   0.0000000   0.0000000   0.0000000  )
         2           Cu  tau(   2) = (   0.5000001   0.0000000   0.0000000  )
         3           Cu  tau(   3) = (   0.2500000   0.4330128   0.0000000  )
         4           Cu  tau(   4) = (   0.7500001   0.4330128   0.0000000  )
         5           Cu  tau(   5) = (   0.2500000   0.1443376   0.4082484  )
         6           Cu  tau(   6) = (   0.7500001   0.1443376   0.4082484  )
         7           Cu  tau(   7) = (   0.5000001   0.5773504   0.4082484  )
         8           Cu  tau(   8) = (   1.0000002   0.5773504   0.4082484  )
         9           Cu  tau(   9) = (  -0.0000000   0.2886752   0.8164967  )
        10           Cu  tau(  10) = (   0.5000001   0.2886752   0.8164967  )
        11           Cu  tau(  11) = (   0.2500000   0.7216880   0.8164967  )
        12           Cu  tau(  12) = (   0.7500001   0.7216880   0.8164967  )
        13           Cu  tau(  13) = (   0.0000000   0.0000000   1.2247451  )
        14           Cu  tau(  14) = (   0.5000001   0.0000000   1.2247451  )
        15           Cu  tau(  15) = (   0.2500000   0.4330128   1.2247451  )
        16           Cu  tau(  16) = (   0.7500001   0.4330128   1.2247451  )

   Crystallographic axes

     site n.     atom                  positions (cryst. coord.)
         1           Cu  tau(   1) = (  0.0000000  0.0000000  0.0000000  )
         2           Cu  tau(   2) = (  0.5000001  0.0000000  0.0000000  )
         3           Cu  tau(   3) = (  0.0000000  0.5000001  0.0000000  )
         4           Cu  tau(   4) = (  0.5000001  0.5000001  0.0000000  )
         5           Cu  tau(   5) = (  0.1666667  0.1666667  0.0793912  )
         6           Cu  tau(   6) = (  0.6666668  0.1666667  0.0793912  )
         7           Cu  tau(   7) = (  0.1666667  0.6666668  0.0793912  )
         8           Cu  tau(   8) = (  0.6666668  0.6666668  0.0793912  )
         9           Cu  tau(   9) = ( -0.1666667  0.3333334  0.1587825  )
        10           Cu  tau(  10) = (  0.3333334  0.3333334  0.1587825  )
        11           Cu  tau(  11) = ( -0.1666667  0.8333335  0.1587825  )
        12           Cu  tau(  12) = (  0.3333334  0.8333335  0.1587825  )
        13           Cu  tau(  13) = (  0.0000000  0.0000000  0.2381737  )
        14           Cu  tau(  14) = (  0.5000001  0.0000000  0.2381737  )
        15           Cu  tau(  15) = (  0.0000000  0.5000001  0.2381737  )
        16           Cu  tau(  16) = (  0.5000001  0.5000001  0.2381737  )

     number of k points=     5  gaussian smearing, width (Ry)=  0.0100
                       cart. coord. in units 2pi/alat
        k(    1) = (   0.0000000   0.0000000   0.0000000), wk =   0.0400000
        k(    2) = (   0.0000000   0.2309401   0.0000000), wk =   0.2400000
        k(    3) = (   0.0000000   0.4618802   0.0000000), wk =   0.2400000
        k(    4) = (   0.2000000   0.3464102   0.0000000), wk =   0.2400000
        k(    5) = (   0.2000000  -0.5773503   0.0000000), wk =   0.2400000

                       cryst. coord.
        k(    1) = (   0.0000000   0.0000000   0.0000000), wk =   0.0400000
        k(    2) = (   0.0000000   0.2000000   0.0000000), wk =   0.2400000
        k(    3) = (   0.0000000   0.4000000   0.0000000), wk =   0.2400000
        k(    4) = (   0.2000000   0.4000000   0.0000000), wk =   0.2400000
        k(    5) = (   0.2000000  -0.4000000   0.0000000), wk =   0.2400000

     Check: negative/imaginary core charge=   -0.000003    0.000000

     Initial potential from superposition of free atoms
     Check: negative starting charge=(component1):   -0.004048
     Check: negative starting charge=(component2):   -0.004048

     starting charge  303.99472, renormalised to  304.00000

     negative rho (up, down):  4.048E-03 4.048E-03
     Starting wfc are  288 randomized atomic wfcs +   22 random wfc
     Checking if some PAW data can be deallocated...

     Self-consistent Calculation

     iteration #  1     ecut=    80.00 Ry     beta=0.70
     Davidson diagonalization with overlap
     ethr =  1.00E-02,  avg # of iterations =  9.2

     negative rho (up, down):  3.267E-03 3.276E-03

     total energy              =   -7707.21634845 Ry
     Harris-Foulkes estimate   =   -7796.79411258 Ry
     estimated scf accuracy    <      76.91331449 Ry

     total magnetization       =     0.00 Bohr mag/cell
     absolute magnetization    =     0.86 Bohr mag/cell

[...]

     total energy              =   -7790.25878767 Ry
     Harris-Foulkes estimate   =   -7790.25878808 Ry
     estimated scf accuracy    <       0.00000145 Ry

[...]

     iteration # 33     ecut=    80.00 Ry     beta=0.70
     Davidson diagonalization with overlap
     ethr =  4.78E-10,  avg # of iterations =  1.0

     negative rho (up, down):  4.178E-03 4.178E-03

     Magnetic moment per site:
     atom:    1    charge:   17.7458    magn:    0.0000    constr:    0.0000
     atom:    2    charge:   17.7452    magn:   -0.0000    constr:    0.0000
     atom:    3    charge:   17.7452    magn:   -0.0000    constr:    0.0000
     atom:    4    charge:   17.7452    magn:   -0.0000    constr:    0.0000
     atom:    5    charge:   17.8126    magn:   -0.0000    constr:    0.0000
     atom:    6    charge:   17.8126    magn:   -0.0000    constr:    0.0000
     atom:    7    charge:   17.8126    magn:   -0.0000    constr:    0.0000
     atom:    8    charge:   17.8129    magn:    0.0000    constr:    0.0000
     atom:    9    charge:   17.8124    magn:    0.0000    constr:    0.0000
     atom:   10    charge:   17.8125    magn:    0.0000    constr:    0.0000
     atom:   11    charge:   17.8124    magn:    0.0000    constr:    0.0000
     atom:   12    charge:   17.8124    magn:    0.0000    constr:    0.0000
     atom:   13    charge:   17.7447    magn:    0.0000    constr:    0.0000
     atom:   14    charge:   17.7449    magn:   -0.0000    constr:    0.0000
     atom:   15    charge:   17.7449    magn:   -0.0000    constr:    0.0000
     atom:   16    charge:   17.7449    magn:   -0.0000    constr:    0.0000

     End of self-consistent calculation

 ------ SPIN UP ------------

          k = 0.0000 0.0000 0.0000 ( 48435 PWs)   bands (ev):

  -109.4298-109.4227-109.4183-109.4178-109.4177-109.4159-109.4154-109.4154
  -109.2388-109.2383-109.2304-109.2291-109.2291-109.2286-109.2285-109.2285
   -66.8596 -66.8422 -66.8419 -66.8419 -66.8390 -66.8390 -66.8389 -66.8122
   -66.8121 -66.8121 -66.8060 -66.8056 -66.8052 -66.8052 -66.7715 -66.7715
   -66.7713 -66.7589 -66.7589 -66.7587 -66.7482 -66.7482 -66.7401 -66.7401
   -66.6880 -66.6880 -66.6876 -66.6873 -66.6873 -66.6870 -66.6279 -66.6279
   -66.6275 -66.6273 -66.6273 -66.6270 -66.6069 -66.6069 -66.6067 -66.6067
   -66.5507 -66.5499 -66.5433 -66.5420 -66.5420 -66.5416 -66.5415 -66.5415
    -5.7825  -4.5333  -2.8707  -1.9955  -1.6794  -1.6794  -1.6793  -1.5569
    -1.5569  -1.5567  -1.1644  -1.1644  -1.1643  -1.1336  -1.1336  -1.1334
    -1.0718  -1.0718  -1.0717  -0.6916  -0.6916  -0.6915  -0.1123  -0.1123
    -0.1121   0.0778   0.0836   0.0836   0.0836   0.1019   0.2163   0.2163
     0.2662   0.2662   0.3000   0.3000   0.3002   0.3725   0.4051   0.4051
     0.4432   0.4436   0.4436   0.4516   0.4516   0.7470   0.7470   0.7473
     0.7609   0.7611   0.7611   1.0121   1.0121   1.1313   1.1313   1.2415
     1.2415   1.2418   1.3039   1.3042   1.3042   1.3997   1.3997   1.5133
     1.5133   1.5135   1.5179   1.5182   1.5182   1.5538   1.5538   1.6112
     1.6112   1.6115   1.6664   1.6664   1.6667   1.7561   1.7561   1.7564
     1.7664   1.7664   1.7667   1.8788   2.8525   2.9053   2.9053   2.9053
     3.9005   3.9005   3.9005   4.4685   4.4685   4.4685   4.6759   4.6759
     4.6759   7.1031   7.1101   7.4466   7.4467   7.4467   7.7879   8.1363
     8.2583   8.2584   8.2584   9.2203   9.2204   9.2204   9.4651   9.5820
    10.4535  10.4535  10.4535  11.4478  11.8205  12.0269  12.0269  12.0269
    12.6642  12.6642  12.6643  14.2109  14.2796  14.2796  14.2796  14.3083
    14.3084  14.3084  14.3892  14.8262  14.8262  14.8262  14.8298  14.8298
    14.8298  15.2553  15.2553  15.2553  15.5506  15.5506  15.5506  15.5852
    15.5852  15.5852  15.6041  15.6041  15.6041  16.6254  16.6254  16.6254
    16.8647  16.8647  16.8647  16.9984  16.9984  16.9984  17.2026  17.2026
    17.2026  17.2575  17.3427  17.3427  17.3427  17.5351  18.4530  18.4530
    18.4530  18.7968  18.7968  18.7968  19.0917  19.0917  19.0917  19.3389
    19.3389  19.3390  19.7385  19.7385  19.7385  20.7539  20.7539  20.7539
    20.8394  21.0573  21.5797  21.5797  21.5797  21.6069  21.6069  21.6069
    21.7013  21.7013  21.7013  21.9184  21.9184  21.9184  22.7233  22.7234
    22.7234  23.0052  23.0052  23.0052  23.3973  23.3973  23.3974  23.7782
    23.7783  23.7783  24.4620  24.4621  24.4621  24.4648  24.6474  24.9713
    24.9713  24.9713  25.1767  25.2095  25.2095  25.2095  25.5296  25.5321
    25.5321  25.5321  25.5672  25.5672  25.7064  25.7064  25.7064  25.8967
    25.8967  25.8967  26.2050  26.2050  26.4213  26.6109  27.1458  27.1458
    27.8705  27.8706  27.8706  27.9229  27.9229  28.1461

     occupation numbers
     1.0000   1.0000   1.0000   1.0000   1.0000   1.0000   1.0000   1.0000
     1.0000   1.0000   1.0000   1.0000   1.0000   1.0000   1.0000   1.0000
     1.0000   1.0000   1.0000   1.0000   1.0000   1.0000   1.0000   1.0000
     1.0000   1.0000   1.0000   1.0000   1.0000   1.0000   1.0000   1.0000
     1.0000   1.0000   1.0000   1.0000   1.0000   1.0000   1.0000   1.0000
     1.0000   1.0000   1.0000   1.0000   1.0000   1.0000   1.0000   1.0000
     1.0000   1.0000   1.0000   1.0000   1.0000   1.0000   1.0000   1.0000
     1.0000   1.0000   1.0000   1.0000   1.0000   1.0000   1.0000   1.0000
     1.0000   1.0000   1.0000   1.0000   1.0000   1.0000   1.0000   1.0000
     1.0000   1.0000   1.0000   1.0000   1.0000   1.0000   1.0000   1.0000
     1.0000   1.0000   1.0000   1.0000   1.0000   1.0000   1.0000   1.0000
     1.0000   1.0000   1.0000   1.0000   1.0000   1.0000   1.0000   1.0000
     1.0000   1.0000   1.0000   1.0000   1.0000   1.0000   1.0000   1.0000
     1.0000   1.0000   1.0000   1.0000   1.0000   1.0000   1.0000   1.0000
     1.0000   1.0000   1.0000   1.0000   1.0000   1.0000   1.0000   1.0000
     1.0000   1.0000   1.0000   1.0000   1.0000   1.0000   1.0000   1.0000
     1.0000   1.0000   1.0000   1.0000   1.0000   1.0000   1.0000   1.0000
     1.0000   1.0000   1.0000   1.0000   1.0000   1.0000   1.0000   1.0000
     1.0000   1.0000   1.0000   1.0000   0.9996   0.9973   0.9973   0.9973
     0.0000   0.0000   0.0000   0.0000   0.0000   0.0000   0.0000   0.0000
     0.0000   0.0000   0.0000   0.0000   0.0000   0.0000   0.0000   0.0000
     0.0000   0.0000   0.0000   0.0000   0.0000   0.0000   0.0000   0.0000
     0.0000   0.0000   0.0000   0.0000   0.0000   0.0000   0.0000   0.0000
     0.0000   0.0000   0.0000   0.0000   0.0000   0.0000   0.0000   0.0000
     0.0000   0.0000   0.0000   0.0000   0.0000   0.0000   0.0000   0.0000
     0.0000   0.0000   0.0000   0.0000   0.0000   0.0000   0.0000   0.0000
     0.0000   0.0000   0.0000   0.0000   0.0000   0.0000   0.0000   0.0000
     0.0000   0.0000   0.0000   0.0000   0.0000   0.0000   0.0000   0.0000
     0.0000   0.0000   0.0000   0.0000   0.0000   0.0000   0.0000   0.0000
     0.0000   0.0000   0.0000   0.0000   0.0000   0.0000   0.0000   0.0000
     0.0000   0.0000   0.0000   0.0000   0.0000   0.0000   0.0000   0.0000
     0.0000   0.0000   0.0000   0.0000   0.0000   0.0000   0.0000   0.0000
     0.0000   0.0000   0.0000   0.0000   0.0000   0.0000   0.0000   0.0000
     0.0000   0.0000   0.0000   0.0000   0.0000   0.0000   0.0000   0.0000
     0.0000   0.0000   0.0000   0.0000   0.0000   0.0000   0.0000   0.0000
     0.0000   0.0000   0.0000   0.0000   0.0000   0.0000   0.0000   0.0000
     0.0000   0.0000   0.0000   0.0000   0.0000   0.0000   0.0000   0.0000
     0.0000   0.0000   0.0000   0.0000   0.0000   0.0000   0.0000   0.0000
     0.0000   0.0000   0.0000   0.0000   0.0000   0.0000

[...]

 ------ SPIN DOWN ----------

[...]

          k = 0.2000-0.5774 0.0000 ( 48334 PWs)   bands (ev):

  -109.4237-109.4235-109.4206-109.4186-109.4184-109.4168-109.4162-109.4152
  -109.2345-109.2334-109.2331-109.2328-109.2309-109.2308-109.2280-109.2279
   -66.8476 -66.8474 -66.8419 -66.8323 -66.8277 -66.8200 -66.8131 -66.8130
   -66.8105 -66.8005 -66.7991 -66.7936 -66.7916 -66.7873 -66.7861 -66.7859
   -66.7833 -66.7831 -66.7711 -66.7637 -66.7617 -66.7616 -66.7528 -66.7528
   -66.6708 -66.6704 -66.6643 -66.6641 -66.6559 -66.6555 -66.6500 -66.6494
   -66.6492 -66.6490 -66.6306 -66.6305 -66.6207 -66.6201 -66.6198 -66.6196
   -66.5469 -66.5456 -66.5454 -66.5452 -66.5435 -66.5434 -66.5410 -66.5409
    -3.6962  -3.6962  -2.6372  -2.6371  -2.4799  -1.7340  -1.3863  -1.3862
    -1.0649  -0.9263  -0.8783  -0.8782  -0.8679  -0.8192  -0.6437  -0.6044
    -0.5736  -0.5657  -0.5095  -0.5093  -0.5070  -0.3633  -0.3565  -0.3138
    -0.3137  -0.2783  -0.2601  -0.2600  -0.0853  -0.0563  -0.0025   0.0189
     0.0190   0.0709   0.0858   0.0934   0.0936   0.1129   0.1663   0.1664
     0.3219   0.3220   0.3281   0.3964   0.4024   0.4103   0.4634   0.4634
     0.4936   0.4951   0.6141   0.6144   0.7588   0.7713   0.7715   0.8091
     0.8094   0.8374   0.9322   0.9455   0.9456   1.0190   1.0472   1.1071
     1.1385   1.1387   1.1638   1.2156   1.2158   1.2676   1.2679   1.3095
     1.3422   1.3423   1.3688   1.3691   1.4243   1.4598   1.5014   1.5035
     1.5119   1.5120   1.5684   1.5819   1.9146   2.0989   2.2215   2.2216
     3.2436   4.1687   4.1688   5.0195   5.4771   5.8739   6.2342   6.2342
     7.1977   7.9044   7.9336   7.9820   8.9185   9.0004   9.0004   9.1815
     9.2717   9.2717   9.9447   9.9448  10.0483  10.0807  10.0807  10.3377
    10.8073  11.0387  11.1448  11.4466  11.4994  11.5398  11.5399  11.5663
    11.5664  12.4342  12.4725  12.9955  13.0821  13.1730  13.1910  13.5235
    13.5235  13.7370  13.7438  13.7438  13.8048  13.9208  14.2535  14.2535
    15.0077  15.1103  15.1981  15.3153  15.3153  15.4164  15.5009  15.6496
    15.8887  16.0134  16.1247  16.2063  16.2791  16.2791  16.3726  16.3726
    16.8013  16.8013  17.2373  17.2373  17.5344  17.5972  17.6484  17.6992
    17.9682  18.0111  18.0162  18.0580  18.0580  18.2065  18.5101  18.5147
    19.0775  19.0775  19.0960  19.1231  19.1242  19.2706  19.4323  19.4323
    19.7746  19.8432  19.8432  19.8464  19.9768  20.0191  20.0191  20.2155
    20.5498  20.7590  20.8377  20.9414  21.0218  21.0364  21.6304  21.6304
    22.2631  22.2632  22.3429  22.4222  22.5937  22.6374  22.7311  22.9982
    22.9982  23.0413  23.0465  23.1193  23.1387  23.1879  23.1879  23.3317
    23.7545  23.7741  23.8069  23.8384  24.2097  24.2097  24.3497  24.3497
    24.5450  24.6612  24.6612  24.7395  25.1956  25.2587  25.2731  25.2731
    25.3009  25.3009  25.3197  25.3688  25.3943  25.4037  25.5766  25.6414
    25.8052  25.8628  26.0347  26.0347  26.5302  26.5303  26.7778  26.7778
    26.8810  26.8810  27.0115  27.0116  27.3058  27.3241

     occupation numbers
     1.0000   1.0000   1.0000   1.0000   1.0000   1.0000   1.0000   1.0000
     1.0000   1.0000   1.0000   1.0000   1.0000   1.0000   1.0000   1.0000
     1.0000   1.0000   1.0000   1.0000   1.0000   1.0000   1.0000   1.0000
     1.0000   1.0000   1.0000   1.0000   1.0000   1.0000   1.0000   1.0000
     1.0000   1.0000   1.0000   1.0000   1.0000   1.0000   1.0000   1.0000
     1.0000   1.0000   1.0000   1.0000   1.0000   1.0000   1.0000   1.0000
     1.0000   1.0000   1.0000   1.0000   1.0000   1.0000   1.0000   1.0000
     1.0000   1.0000   1.0000   1.0000   1.0000   1.0000   1.0000   1.0000
     1.0000   1.0000   1.0000   1.0000   1.0000   1.0000   1.0000   1.0000
     1.0000   1.0000   1.0000   1.0000   1.0000   1.0000   1.0000   1.0000
     1.0000   1.0000   1.0000   1.0000   1.0000   1.0000   1.0000   1.0000
     1.0000   1.0000   1.0000   1.0000   1.0000   1.0000   1.0000   1.0000
     1.0000   1.0000   1.0000   1.0000   1.0000   1.0000   1.0000   1.0000
     1.0000   1.0000   1.0000   1.0000   1.0000   1.0000   1.0000   1.0000
     1.0000   1.0000   1.0000   1.0000   1.0000   1.0000   1.0000   1.0000
     1.0000   1.0000   1.0000   1.0000   1.0000   1.0000   1.0000   1.0000
     1.0000   1.0000   1.0000   1.0000   1.0000   1.0000   1.0000   1.0000
     1.0000   1.0000   1.0000   1.0000   1.0000   1.0000   1.0000   1.0000
     1.0000   1.0000   1.0000   1.0000   1.0000   1.0000   1.0000   1.0000
     0.2302   0.0000   0.0000   0.0000   0.0000   0.0000   0.0000   0.0000
     0.0000   0.0000   0.0000   0.0000   0.0000   0.0000   0.0000   0.0000
     0.0000   0.0000   0.0000   0.0000   0.0000   0.0000   0.0000   0.0000
     0.0000   0.0000   0.0000   0.0000   0.0000   0.0000   0.0000   0.0000
     0.0000   0.0000   0.0000   0.0000   0.0000   0.0000   0.0000   0.0000
     0.0000   0.0000   0.0000   0.0000   0.0000   0.0000   0.0000   0.0000
     0.0000   0.0000   0.0000   0.0000   0.0000   0.0000   0.0000   0.0000
     0.0000   0.0000   0.0000   0.0000   0.0000   0.0000   0.0000   0.0000
     0.0000   0.0000   0.0000   0.0000   0.0000   0.0000   0.0000   0.0000
     0.0000   0.0000   0.0000   0.0000   0.0000   0.0000   0.0000   0.0000
     0.0000   0.0000   0.0000   0.0000   0.0000   0.0000   0.0000   0.0000
     0.0000   0.0000   0.0000   0.0000   0.0000   0.0000   0.0000   0.0000
     0.0000   0.0000   0.0000   0.0000   0.0000   0.0000   0.0000   0.0000
     0.0000   0.0000   0.0000   0.0000   0.0000   0.0000   0.0000   0.0000
     0.0000   0.0000   0.0000   0.0000   0.0000   0.0000   0.0000   0.0000
     0.0000   0.0000   0.0000   0.0000   0.0000   0.0000   0.0000   0.0000
     0.0000   0.0000   0.0000   0.0000   0.0000   0.0000   0.0000   0.0000
     0.0000   0.0000   0.0000   0.0000   0.0000   0.0000   0.0000   0.0000
     0.0000   0.0000   0.0000   0.0000   0.0000   0.0000   0.0000   0.0000
     0.0000   0.0000   0.0000   0.0000   0.0000   0.0000

     the spin up/dw Fermi energies are     3.1725    3.1725 ev

!    total energy              =   -7790.25878715 Ry
     Harris-Foulkes estimate   =   -7790.25878797 Ry
     estimated scf accuracy    <       0.00000064 Ry

     total all-electron energy =     -7790.258787 Ry

     The total energy is the sum of the following terms:

     one-electron contribution =  -60742.39440493 Ry
     hartree contribution      =   29505.01465745 Ry
     xc contribution           =    -505.64592556 Ry
     ewald contribution        =   24669.10772281 Ry
     Dispersion Correction     =      -0.34825439 Ry
     one-center paw contrib.   =    -715.98737638 Ry
     smearing contrib. (-TS)   =      -0.00520616 Ry

     total magnetization       =     0.00 Bohr mag/cell
     absolute magnetization    =     0.00 Bohr mag/cell

     convergence has been achieved in  33 iterations

     Writing output data file Cu.save

     General routines

     Parallel routines

     PAW routines

   This run was terminated on:   7:24:27  26Jun2022

   JOB DONE.