     Program PWSCF v.6.0 (svn rev. 13079) starts on 26Jun2022 at 13:31: 0

     Current dimensions of program PWSCF are:
     Max number of different atomic species (ntypx) = 10
     Max number of k-points (npk) =  40000
     Max angular momentum in pseudopotentials (lmaxx) =  3
               file Cu.upf: wavefunction(s)  Xn Xn Xn Xn Xn Xn renormalized

     Parameters for Dispersion Correction:
       atom      VdW radius       C_6

        Cu         2.952        374.666

     Subspace diagonalization in iterative solution of the eigenvalue problem:
     a serial algorithm will be used

     Found symmetry operation: I + ( -0.5000  0.0000  0.0000)
     This is a supercell, fractional translations are disabled

     bravais-lattice index     =           14
     lattice parameter (alat)  =       9.6476  a.u.
     unit-cell volume          =    3998.9452 (a.u.)^3
     number of atoms/cell      =           16
     number of atomic types    =            1
     number of electrons       =       304.00 (up: 152.00, down: 152.00)
     number of Kohn-Sham states=          310
     kinetic-energy cutoff     =      80.0000  Ry
     charge density cutoff     =     320.0000  Ry
     convergence threshold     =      1.0E-06
     mixing beta               =       0.7000
     number of iterations used =            8  plain     mixing
     Exchange-correlation      = SLA PW PBX PBC ( 1  4  3  4 0 0)

     celldm(1)=   9.647638  celldm(2)=   1.000000  celldm(3)=   5.142234
     celldm(4)=   0.000000  celldm(5)=   0.000000  celldm(6)=   0.500000

     crystal axes: (cart. coord. in units of alat)
               a(1) = (   1.000000   0.000000   0.000000 )
               a(2) = (   0.500000   0.866025   0.000000 )
               a(3) = (   0.000000   0.000000   5.142234 )

     reciprocal axes: (cart. coord. in units 2 pi/alat)
               b(1) = (  1.000000 -0.577350  0.000000 )
               b(2) = (  0.000000  1.154701  0.000000 )
               b(3) = (  0.000000  0.000000  0.194468 )

     PseudoPot. # 1 for Cu read from file:
     /home/drewglenna/Documents/Espresso/q-e-qe-6.8/pseudo/PAW/Cu.upf
     MD5 check sum: 69e544ce53ba1f79758756dbb2f8fbdd
     Pseudo is Projector augmented-wave + core cor, Zval = 19.0
     Generated using ATOMPAW code
     Shape of augmentation charge: SINC**2
     Using radial grid of 2342 points,  6 beta functions with:
                l(1) =   0
                l(2) =   0
                l(3) =   1
                l(4) =   1
                l(5) =   2
                l(6) =   2
     Q(r) pseudized with 0 coefficients

     atomic species   valence    mass     pseudopotential
        Cu            19.00    63.54600     Cu( 1.00)

     Starting magnetic structure
     atomic species   magnetization
        Cu           0.000

      6 Sym. Ops. (no inversion) found

                                    s                        frac. trans.

      isym =  1     identity

 cryst.   s( 1) = (     1          0          0      )
                  (     0          1          0      )
                  (     0          0          1      )

 cart.    s( 1) = (  1.0000000  0.0000000  0.0000000 )
                  (  0.0000000  1.0000000  0.0000000 )
                  (  0.0000000  0.0000000  1.0000000 )

      isym =  2     120 deg rotation - cryst. axis [0,0,1]

[...]

      isym =  3     120 deg rotation - cryst. axis [0,0,-1]

[...]

      isym =  4     inv. 180 deg rotation - cart. axis [1,0,0]

[...]

      isym =  5     inv. 180 deg rotation - cryst. axis [0,1,0]

[...]

      isym =  6     inv. 180 deg rotation - cryst. axis [1,1,0]

 cryst.   s( 6) = (     1         -1          0      )
                  (     0         -1          0      )
                  (     0          0          1      )

 cart.    s( 6) = (  0.5000000 -0.8660254  0.0000000 )
                  ( -0.8660254 -0.5000000  0.0000000 )
                  (  0.0000000  0.0000000  1.0000000 )

     point group C_3v (3m)
     there are  3 classes
     the character table:

       E     2C3   3s_v
A_1    1.00  1.00  1.00
A_2    1.00  1.00 -1.00
E      2.00 -1.00  0.00

     the symmetry operations in each class and the name of the first element:

     E        1
          identity
     2C3      2    3
          120 deg rotation - cryst. axis [0,0,1]
     3s_v     4    5    6
          inv. 180 deg rotation - cart. axis [1,0,0]

   Cartesian axes

     site n.     atom                  positions (alat units)
         1           Cu  tau(   1) = (   0.0000000   0.0000000   0.0000000  )
         2           Cu  tau(   2) = (   0.5000001   0.0000000   0.0000000  )
         3           Cu  tau(   3) = (   0.2500000   0.4330128   0.0000000  )
         4           Cu  tau(   4) = (   0.7500001   0.4330128   0.0000000  )
         5           Cu  tau(   5) = (   0.2500000   0.1443376   0.4082484  )
         6           Cu  tau(   6) = (   0.7500001   0.1443376   0.4082484  )
         7           Cu  tau(   7) = (   0.5000001   0.5773504   0.4082484  )
         8           Cu  tau(   8) = (   1.0000002   0.5773504   0.4082484  )
         9           Cu  tau(   9) = (  -0.0000000   0.2886752   0.8164967  )
        10           Cu  tau(  10) = (   0.5000001   0.2886752   0.8164967  )
        11           Cu  tau(  11) = (   0.2500000   0.7216880   0.8164967  )
        12           Cu  tau(  12) = (   0.7500001   0.7216880   0.8164967  )
        13           Cu  tau(  13) = (   0.0000000   0.0000000   1.2247451  )
        14           Cu  tau(  14) = (   0.5000001   0.0000000   1.2247451  )
        15           Cu  tau(  15) = (   0.2500000   0.4330128   1.2247451  )
        16           Cu  tau(  16) = (   0.7500001   0.4330128   1.2247451  )

   Crystallographic axes

     site n.     atom                  positions (cryst. coord.)
         1           Cu  tau(   1) = (  0.0000000  0.0000000  0.0000000  )
         2           Cu  tau(   2) = (  0.5000001  0.0000000  0.0000000  )
         3           Cu  tau(   3) = (  0.0000000  0.5000001  0.0000000  )
         4           Cu  tau(   4) = (  0.5000001  0.5000001  0.0000000  )
         5           Cu  tau(   5) = (  0.1666667  0.1666667  0.0793912  )
         6           Cu  tau(   6) = (  0.6666668  0.1666667  0.0793912  )
         7           Cu  tau(   7) = (  0.1666667  0.6666668  0.0793912  )
         8           Cu  tau(   8) = (  0.6666668  0.6666668  0.0793912  )
         9           Cu  tau(   9) = ( -0.1666667  0.3333334  0.1587825  )
        10           Cu  tau(  10) = (  0.3333334  0.3333334  0.1587825  )
        11           Cu  tau(  11) = ( -0.1666667  0.8333335  0.1587825  )
        12           Cu  tau(  12) = (  0.3333334  0.8333335  0.1587825  )
        13           Cu  tau(  13) = (  0.0000000  0.0000000  0.2381737  )
        14           Cu  tau(  14) = (  0.5000001  0.0000000  0.2381737  )
        15           Cu  tau(  15) = (  0.0000000  0.5000001  0.2381737  )
        16           Cu  tau(  16) = (  0.5000001  0.5000001  0.2381737  )

     number of k points=    12  gaussian smearing, width (Ry)=  0.0100
                       cart. coord. in units 2pi/alat
        k(    1) = (   0.0000000   0.0000000   0.0000000), wk =   0.0123457
        k(    2) = (   0.0000000   0.1283001   0.0000000), wk =   0.0740741
        k(    3) = (   0.0000000   0.2566001   0.0000000), wk =   0.0740741
        k(    4) = (   0.0000000   0.3849002   0.0000000), wk =   0.0740741
        k(    5) = (   0.0000000   0.5132002   0.0000000), wk =   0.0740741
        k(    6) = (   0.1111111   0.1924501   0.0000000), wk =   0.0740741
        k(    7) = (   0.1111111   0.3207501   0.0000000), wk =   0.1481481
        k(    8) = (   0.1111111   0.4490502   0.0000000), wk =   0.1481481
        k(    9) = (   0.1111111  -0.5773503   0.0000000), wk =   0.0740741
        k(   10) = (   0.2222222   0.3849002   0.0000000), wk =   0.0740741
        k(   11) = (   0.2222222  -0.6415003   0.0000000), wk =   0.1481481
        k(   12) = (   0.3333333  -0.5773503   0.0000000), wk =   0.0246914

                       cryst. coord.
        k(    1) = (   0.0000000   0.0000000   0.0000000), wk =   0.0123457
        k(    2) = (   0.0000000   0.1111111   0.0000000), wk =   0.0740741
        k(    3) = (   0.0000000   0.2222222   0.0000000), wk =   0.0740741
        k(    4) = (   0.0000000   0.3333333   0.0000000), wk =   0.0740741
        k(    5) = (   0.0000000   0.4444444   0.0000000), wk =   0.0740741
        k(    6) = (   0.1111111   0.2222222   0.0000000), wk =   0.0740741
        k(    7) = (   0.1111111   0.3333333   0.0000000), wk =   0.1481481
        k(    8) = (   0.1111111   0.4444444   0.0000000), wk =   0.1481481
        k(    9) = (   0.1111111  -0.4444444   0.0000000), wk =   0.0740741
        k(   10) = (   0.2222222   0.4444444   0.0000000), wk =   0.0740741
        k(   11) = (   0.2222222  -0.4444444   0.0000000), wk =   0.1481481
        k(   12) = (   0.3333333  -0.3333333   0.0000000), wk =   0.0246914

     Check: negative/imaginary core charge=   -0.000003    0.000000

     Initial potential from superposition of free atoms
     Check: negative starting charge=(component1):   -0.004048
     Check: negative starting charge=(component2):   -0.004048

     starting charge  303.99472, renormalised to  304.00000

     negative rho (up, down):  4.048E-03 4.048E-03
     Starting wfc are  288 randomized atomic wfcs +   22 random wfc
     Checking if some PAW data can be deallocated...

     Self-consistent Calculation

     iteration #  1     ecut=    80.00 Ry     beta=0.70
     Davidson diagonalization with overlap
     ethr =  1.00E-02,  avg # of iterations =  9.5

     negative rho (up, down):  3.274E-03 3.286E-03

     total energy              =   -7705.91854966 Ry
     Harris-Foulkes estimate   =   -7796.79286622 Ry
     estimated scf accuracy    <      78.29347023 Ry

     total magnetization       =     0.00 Bohr mag/cell
     absolute magnetization    =     0.86 Bohr mag/cell

[...]

     total energy              =   -7790.27011908 Ry
     Harris-Foulkes estimate   =   -7790.27011923 Ry
     estimated scf accuracy    <       0.00000129 Ry

[...]

     iteration # 35     ecut=    80.00 Ry     beta=0.70
     Davidson diagonalization with overlap
     ethr =  4.24E-10,  avg # of iterations =  1.0

     negative rho (up, down):  4.196E-03 4.196E-03

     Magnetic moment per site:
     atom:    1    charge:   17.7472    magn:    0.0000    constr:    0.0000
     atom:    2    charge:   17.7471    magn:   -0.0000    constr:    0.0000
     atom:    3    charge:   17.7471    magn:   -0.0000    constr:    0.0000
     atom:    4    charge:   17.7471    magn:   -0.0000    constr:    0.0000
     atom:    5    charge:   17.8120    magn:   -0.0000    constr:    0.0000
     atom:    6    charge:   17.8120    magn:   -0.0000    constr:    0.0000
     atom:    7    charge:   17.8120    magn:   -0.0000    constr:    0.0000
     atom:    8    charge:   17.8120    magn:    0.0000    constr:    0.0000
     atom:    9    charge:   17.8118    magn:    0.0000    constr:    0.0000
     atom:   10    charge:   17.8118    magn:    0.0000    constr:    0.0000
     atom:   11    charge:   17.8118    magn:    0.0000    constr:    0.0000
     atom:   12    charge:   17.8118    magn:    0.0000    constr:    0.0000
     atom:   13    charge:   17.7467    magn:    0.0000    constr:    0.0000
     atom:   14    charge:   17.7468    magn:   -0.0000    constr:    0.0000
     atom:   15    charge:   17.7468    magn:   -0.0000    constr:    0.0000
     atom:   16    charge:   17.7468    magn:   -0.0000    constr:    0.0000

     End of self-consistent calculation

 ------ SPIN UP ------------

          k = 0.0000 0.0000 0.0000 ( 48435 PWs)   bands (ev):

  -109.4833-109.4762-109.4716-109.4714-109.4714-109.4693-109.4691-109.4691
  -109.2040-109.2039-109.1947-109.1947-109.1947-109.1943-109.1943-109.1943
   -66.8979 -66.8979 -66.8978 -66.8951 -66.8937 -66.8937 -66.8937 -66.8585
   -66.8584 -66.8584 -66.8445 -66.8443 -66.8443 -66.8413 -66.8342 -66.8342
   -66.8341 -66.8216 -66.8216 -66.8215 -66.8111 -66.8111 -66.8029 -66.8029
   -66.6468 -66.6466 -66.6466 -66.6466 -66.6466 -66.6464 -66.5862 -66.5860
   -66.5860 -66.5860 -66.5860 -66.5858 -66.5654 -66.5654 -66.5652 -66.5652
   -66.5293 -66.5290 -66.5210 -66.5209 -66.5209 -66.5206 -66.5206 -66.5205
    -5.8214  -4.5308  -2.8629  -2.0186  -1.7235  -1.7235  -1.7235  -1.6012
    -1.6012  -1.6011  -1.1996  -1.1996  -1.1996  -1.1214  -1.1214  -1.1214
    -1.0537  -1.0537  -1.0537  -0.6879  -0.6879  -0.6879  -0.1030  -0.1030
    -0.1029   0.0343   0.0559   0.0560   0.0560   0.1038   0.1589   0.1589
     0.2078   0.2078   0.2649   0.2649   0.2649   0.3863   0.4356   0.4357
     0.4357   0.4362   0.4362   0.4838   0.4838   0.7429   0.7429   0.7429
     0.7595   0.7595   0.7595   0.9775   0.9775   1.1223   1.1223   1.2586
     1.2586   1.2586   1.3048   1.3048   1.3048   1.4219   1.4219   1.4921
     1.4921   1.4921   1.5061   1.5062   1.5062   1.5461   1.5461   1.5462
     1.5487   1.5487   1.6149   1.6149   1.6150   1.7994   1.7995   1.7995
     1.8046   1.8046   1.8046   1.8926   2.8591   2.8922   2.8922   2.8922
     3.8860   3.8860   3.8860   4.4659   4.4659   4.4659   4.6678   4.6678
     4.6678   7.1103   7.1154   7.4286   7.4286   7.4286   7.7961   8.1379
     8.2825   8.2825   8.2826   9.2292   9.2292   9.2292   9.4716   9.5791
    10.4453  10.4454  10.4454  11.4476  11.8270  12.0127  12.0127  12.0127
    12.6647  12.6647  12.6647  14.2150  14.2798  14.2799  14.2799  14.3181
    14.3181  14.3181  14.3925  14.8307  14.8307  14.8307  14.8343  14.8343
    14.8343  15.2588  15.2588  15.2588  15.5567  15.5567  15.5567  15.5884
    15.5884  15.5884  15.6100  15.6100  15.6100  16.6304  16.6304  16.6304
    16.8295  16.8296  16.8296  17.0017  17.0017  17.0018  17.2073  17.2073
    17.2073  17.2594  17.3498  17.3498  17.3498  17.5399  18.4607  18.4607
    18.4607  18.8033  18.8033  18.8033  19.0975  19.0975  19.0975  19.3398
    19.3398  19.3398  19.7438  19.7438  19.7438  20.7604  20.7604  20.7604
    20.8452  21.0563  21.5774  21.5775  21.5775  21.6135  21.6135  21.6135
    21.6784  21.6784  21.6784  21.9249  21.9249  21.9249  22.7220  22.7220
    22.7220  22.9891  22.9891  22.9891  23.3807  23.3807  23.3807  23.7672
    23.7672  23.7672  24.4620  24.4638  24.4638  24.4638  24.6035  24.9826
    24.9826  24.9826  25.1824  25.2169  25.2169  25.2169  25.5258  25.5262
    25.5262  25.5262  25.5293  25.5293  25.7231  25.7231  25.7231  25.9146
    25.9146  25.9146  26.1830  26.1831  26.4371  26.5971  27.1486  27.1486
    27.8757  27.8757  27.8757  27.9225  27.9225  28.1522

     occupation numbers
     1.0000   1.0000   1.0000   1.0000   1.0000   1.0000   1.0000   1.0000
     1.0000   1.0000   1.0000   1.0000   1.0000   1.0000   1.0000   1.0000
     1.0000   1.0000   1.0000   1.0000   1.0000   1.0000   1.0000   1.0000
     1.0000   1.0000   1.0000   1.0000   1.0000   1.0000   1.0000   1.0000
     1.0000   1.0000   1.0000   1.0000   1.0000   1.0000   1.0000   1.0000
     1.0000   1.0000   1.0000   1.0000   1.0000   1.0000   1.0000   1.0000
     1.0000   1.0000   1.0000   1.0000   1.0000   1.0000   1.0000   1.0000
     1.0000   1.0000   1.0000   1.0000   1.0000   1.0000   1.0000   1.0000
     1.0000   1.0000   1.0000   1.0000   1.0000   1.0000   1.0000   1.0000
     1.0000   1.0000   1.0000   1.0000   1.0000   1.0000   1.0000   1.0000
     1.0000   1.0000   1.0000   1.0000   1.0000   1.0000   1.0000   1.0000
     1.0000   1.0000   1.0000   1.0000   1.0000   1.0000   1.0000   1.0000
     1.0000   1.0000   1.0000   1.0000   1.0000   1.0000   1.0000   1.0000
     1.0000   1.0000   1.0000   1.0000   1.0000   1.0000   1.0000   1.0000
     1.0000   1.0000   1.0000   1.0000   1.0000   1.0000   1.0000   1.0000
     1.0000   1.0000   1.0000   1.0000   1.0000   1.0000   1.0000   1.0000
     1.0000   1.0000   1.0000   1.0000   1.0000   1.0000   1.0000   1.0000
     1.0000   1.0000   1.0000   1.0000   1.0000   1.0000   1.0000   1.0000
     1.0000   1.0000   1.0000   1.0000   0.9859   0.9679   0.9679   0.9679
     0.0000   0.0000   0.0000   0.0000   0.0000   0.0000   0.0000   0.0000
     0.0000   0.0000   0.0000   0.0000   0.0000   0.0000   0.0000   0.0000
     0.0000   0.0000   0.0000   0.0000   0.0000   0.0000   0.0000   0.0000
     0.0000   0.0000   0.0000   0.0000   0.0000   0.0000   0.0000   0.0000
     0.0000   0.0000   0.0000   0.0000   0.0000   0.0000   0.0000   0.0000
     0.0000   0.0000   0.0000   0.0000   0.0000   0.0000   0.0000   0.0000
     0.0000   0.0000   0.0000   0.0000   0.0000   0.0000   0.0000   0.0000
     0.0000   0.0000   0.0000   0.0000   0.0000   0.0000   0.0000   0.0000
     0.0000   0.0000   0.0000   0.0000   0.0000   0.0000   0.0000   0.0000
     0.0000   0.0000   0.0000   0.0000   0.0000   0.0000   0.0000   0.0000
     0.0000   0.0000   0.0000   0.0000   0.0000   0.0000   0.0000   0.0000
     0.0000   0.0000   0.0000   0.0000   0.0000   0.0000   0.0000   0.0000
     0.0000   0.0000   0.0000   0.0000   0.0000   0.0000   0.0000   0.0000
     0.0000   0.0000   0.0000   0.0000   0.0000   0.0000   0.0000   0.0000
     0.0000   0.0000   0.0000   0.0000   0.0000   0.0000   0.0000   0.0000
     0.0000   0.0000   0.0000   0.0000   0.0000   0.0000   0.0000   0.0000
     0.0000   0.0000   0.0000   0.0000   0.0000   0.0000   0.0000   0.0000
     0.0000   0.0000   0.0000   0.0000   0.0000   0.0000   0.0000   0.0000
     0.0000   0.0000   0.0000   0.0000   0.0000   0.0000   0.0000   0.0000
     0.0000   0.0000   0.0000   0.0000   0.0000   0.0000

[...]

 ------ SPIN DOWN ----------

[...]

          k = 0.3333-0.5774 0.0000 ( 48288 PWs)   bands (ev):

  -109.4763-109.4762-109.4762-109.4716-109.4715-109.4715-109.4692-109.4691
  -109.1982-109.1982-109.1982-109.1979-109.1979-109.1979-109.1934-109.1933
   -66.8831 -66.8830 -66.8830 -66.8764 -66.8764 -66.8734 -66.8635 -66.8635
   -66.8635 -66.8578 -66.8510 -66.8510 -66.8510 -66.8446 -66.8446 -66.8368
   -66.8368 -66.8368 -66.8269 -66.8268 -66.8268 -66.8194 -66.8194 -66.8193
   -66.6231 -66.6230 -66.6225 -66.6224 -66.6127 -66.6125 -66.6125 -66.6124
   -66.6124 -66.6123 -66.5823 -66.5821 -66.5821 -66.5820 -66.5820 -66.5819
   -66.5240 -66.5240 -66.5240 -66.5237 -66.5237 -66.5236 -66.5197 -66.5196
    -3.3788  -3.3788  -3.3788  -2.3474  -2.3474  -2.3474  -1.2430  -1.2430
    -1.2429  -0.8129  -0.8128  -0.7926  -0.7584  -0.7584  -0.7584  -0.6770
    -0.6770  -0.5550  -0.5314  -0.5314  -0.5314  -0.4251  -0.3882  -0.3882
    -0.3882  -0.3086  -0.3086  -0.3085  -0.0308  -0.0308  -0.0307  -0.0103
    -0.0102   0.0422   0.0422   0.0423   0.0723   0.0723   0.0724   0.2132
     0.2132   0.2133   0.3742   0.3743   0.4236   0.4237   0.4925   0.4925
     0.4925   0.5573   0.5573   0.5574   0.7515   0.7515   0.7515   0.8207
     0.8258   0.8258   0.8259   0.9889   0.9889   0.9890   1.0083   1.0084
     1.2064   1.2064   1.2065   1.2922   1.2922   1.2923   1.3600   1.3600
     1.3600   1.3638   1.4544   1.4544   1.4622   1.4622   1.4622   1.4735
     1.4933   1.4933   1.4934   1.5382   1.5382   1.5383   2.4629   2.4629
     2.4629   4.5218   4.5218   4.5218   6.5390   6.7144   6.7144   6.7144
     6.7923   6.7924   7.5916   7.5917   8.3332   9.3717   9.3717   9.3717
     9.4278   9.4279   9.6877   9.6877   9.6877  10.3617  10.3617  10.3617
    10.4679  10.4679  10.4679  10.6132  11.4245  11.9278  11.9278  11.9278
    11.9690  11.9690  11.9690  12.7967  12.7968  13.9036  13.9036  13.9036
    14.0354  14.0354  14.0354  14.2181  14.4875  14.4875  14.4875  14.5528
    14.5528  14.5528  15.0671  15.0672  15.5824  15.5824  15.5824  15.7156
    15.7156  15.7156  16.7058  16.7058  16.7059  16.7514  16.7514  16.7514
    16.8500  16.8503  16.8904  17.3562  17.3562  17.3562  17.3854  17.3857
    17.3997  17.7573  17.7573  17.7573  17.9478  17.9661  17.9661  18.1468
    18.1697  18.1702  19.2567  19.4137  19.4144  19.4379  19.4379  19.4379
    19.5419  19.5419  19.5419  19.8179  19.8190  19.8861  20.1381  20.1381
    20.1381  20.2623  20.2623  20.2623  21.4430  21.4952  21.4962  21.9609
    21.9610  21.9610  22.0140  22.0140  22.0140  22.0193  22.0210  22.3336
    23.3697  23.3697  23.3697  23.4563  23.4563  23.4563  24.1293  24.1293
    24.4427  24.5617  24.5617  24.5617  24.6786  24.6791  24.7094  24.7517
    24.7517  24.7517  25.0684  25.0684  25.0684  25.0783  25.0783  25.0783
    25.7016  25.7016  25.7016  25.7181  25.7181  25.7181  25.7491  25.7491
    25.7491  25.7844  25.7844  25.7844  27.0438  27.0439  27.0439  27.1750
    27.1751  27.1755  27.1810  27.1816  27.2026  27.2046

     occupation numbers
     1.0000   1.0000   1.0000   1.0000   1.0000   1.0000   1.0000   1.0000
     1.0000   1.0000   1.0000   1.0000   1.0000   1.0000   1.0000   1.0000
     1.0000   1.0000   1.0000   1.0000   1.0000   1.0000   1.0000   1.0000
     1.0000   1.0000   1.0000   1.0000   1.0000   1.0000   1.0000   1.0000
     1.0000   1.0000   1.0000   1.0000   1.0000   1.0000   1.0000   1.0000
     1.0000   1.0000   1.0000   1.0000   1.0000   1.0000   1.0000   1.0000
     1.0000   1.0000   1.0000   1.0000   1.0000   1.0000   1.0000   1.0000
     1.0000   1.0000   1.0000   1.0000   1.0000   1.0000   1.0000   1.0000
     1.0000   1.0000   1.0000   1.0000   1.0000   1.0000   1.0000   1.0000
     1.0000   1.0000   1.0000   1.0000   1.0000   1.0000   1.0000   1.0000
     1.0000   1.0000   1.0000   1.0000   1.0000   1.0000   1.0000   1.0000
     1.0000   1.0000   1.0000   1.0000   1.0000   1.0000   1.0000   1.0000
     1.0000   1.0000   1.0000   1.0000   1.0000   1.0000   1.0000   1.0000
     1.0000   1.0000   1.0000   1.0000   1.0000   1.0000   1.0000   1.0000
     1.0000   1.0000   1.0000   1.0000   1.0000   1.0000   1.0000   1.0000
     1.0000   1.0000   1.0000   1.0000   1.0000   1.0000   1.0000   1.0000
     1.0000   1.0000   1.0000   1.0000   1.0000   1.0000   1.0000   1.0000
     1.0000   1.0000   1.0000   1.0000   1.0000   1.0000   1.0000   1.0000
     1.0000   1.0000   1.0000   1.0000   1.0000   1.0000   1.0000   1.0000
     1.0000   0.0000   0.0000   0.0000   0.0000   0.0000   0.0000   0.0000
     0.0000   0.0000   0.0000   0.0000   0.0000   0.0000   0.0000   0.0000
     0.0000   0.0000   0.0000   0.0000   0.0000   0.0000   0.0000   0.0000
     0.0000   0.0000   0.0000   0.0000   0.0000   0.0000   0.0000   0.0000
     0.0000   0.0000   0.0000   0.0000   0.0000   0.0000   0.0000   0.0000
     0.0000   0.0000   0.0000   0.0000   0.0000   0.0000   0.0000   0.0000
     0.0000   0.0000   0.0000   0.0000   0.0000   0.0000   0.0000   0.0000
     0.0000   0.0000   0.0000   0.0000   0.0000   0.0000   0.0000   0.0000
     0.0000   0.0000   0.0000   0.0000   0.0000   0.0000   0.0000   0.0000
     0.0000   0.0000   0.0000   0.0000   0.0000   0.0000   0.0000   0.0000
     0.0000   0.0000   0.0000   0.0000   0.0000   0.0000   0.0000   0.0000
     0.0000   0.0000   0.0000   0.0000   0.0000   0.0000   0.0000   0.0000
     0.0000   0.0000   0.0000   0.0000   0.0000   0.0000   0.0000   0.0000
     0.0000   0.0000   0.0000   0.0000   0.0000   0.0000   0.0000   0.0000
     0.0000   0.0000   0.0000   0.0000   0.0000   0.0000   0.0000   0.0000
     0.0000   0.0000   0.0000   0.0000   0.0000   0.0000   0.0000   0.0000
     0.0000   0.0000   0.0000   0.0000   0.0000   0.0000   0.0000   0.0000
     0.0000   0.0000   0.0000   0.0000   0.0000   0.0000   0.0000   0.0000
     0.0000   0.0000   0.0000   0.0000   0.0000   0.0000   0.0000   0.0000
     0.0000   0.0000   0.0000   0.0000   0.0000   0.0000

     the spin up/dw Fermi energies are     3.0703    3.0703 ev

!    total energy              =   -7790.27011908 Ry
     Harris-Foulkes estimate   =   -7790.27011918 Ry
     estimated scf accuracy    <       0.00000007 Ry

     total all-electron energy =     -7790.270119 Ry

     The total energy is the sum of the following terms:

     one-electron contribution =  -60742.18483750 Ry
     hartree contribution      =   29504.80945342 Ry
     xc contribution           =    -505.65218191 Ry
     ewald contribution        =   24669.10772281 Ry
     Dispersion Correction     =      -0.34825439 Ry
     one-center paw contrib.   =    -715.99674388 Ry
     smearing contrib. (-TS)   =      -0.00527763 Ry

     total magnetization       =     0.00 Bohr mag/cell
     absolute magnetization    =     0.00 Bohr mag/cell

     convergence has been achieved in  35 iterations

     Writing output data file Cu.save

     General routines

     Parallel routines

     PAW routines

   This run was terminated on:  22:58:59  26Jun2022

   JOB DONE.