     Program PWSCF v.7.0 starts on  8Jul2022 at  8:48:51

     R & G space division:  proc/nbgrp/npool/nimage =      24

     Waiting for input...
     Reading input from standard input

     Current dimensions of program PWSCF are:
     Max number of different atomic species (ntypx) = 10
     Max number of k-points (npk) =  40000
     Max angular momentum in pseudopotentials (lmaxx) =  4
     Message from routine read_pp_mesh:
     mismatch in mesh size, discarding the one in header
     Message from routine read_pp_mesh:
     mismatch in mesh size, discarding the one in header
     Message from routine read_pp_mesh:
     mismatch in mesh size, discarding the one in header

     Parameters for Dispersion (Grimme-D2) Correction:
       atom      VdW radius       C_6

        Cu         2.952        374.666
        C          2.744         60.710
        O          2.536         24.284

     Subspace diagonalization in iterative solution of the eigenvalue problem:
     a serial algorithm will be used

     Using Slab Decomposition

     bravais-lattice index     =           14
     lattice parameter (alat)  =       9.6476  a.u.
     unit-cell volume          =    3998.9451 (a.u.)^3
     number of atoms/cell      =           19
     number of atomic types    =            3
     number of electrons       =       320.00
     number of Kohn-Sham states=          192
     kinetic-energy cutoff     =      80.0000  Ry
     charge density cutoff     =     320.0000  Ry
     scf convergence threshold =      1.0E-06
     mixing beta               =       0.7000
     number of iterations used =            8  plain     mixing
     Exchange-correlation= SLA PW PBX PBC
                           (   1   4   3   4   0   0   0)

     celldm(1)=   9.647638  celldm(2)=   1.000000  celldm(3)=   5.142234
     celldm(4)=   0.000000  celldm(5)=   0.000000  celldm(6)=   0.500000

     crystal axes: (cart. coord. in units of alat)
               a(1) = (   1.000000   0.000000   0.000000 )
               a(2) = (   0.500000   0.866025   0.000000 )
               a(3) = (   0.000000   0.000000   5.142234 )

     reciprocal axes: (cart. coord. in units 2 pi/alat)
               b(1) = (  1.000000 -0.577350  0.000000 )
               b(2) = (  0.000000  1.154701  0.000000 )
               b(3) = (  0.000000  0.000000  0.194468 )

     PseudoPot. # 1 for Cu read from file:
     /mnt/ceph/glen3534/Prep/Adsorption/CO2Cu/CO2Cu.save/Cu.upf
     MD5 check sum: 69e544ce53ba1f79758756dbb2f8fbdd
     Pseudo is Projector augmented-wave + core cor, Zval = 19.0
     Generated using ATOMPAW code
     Shape of augmentation charge: SINC**2
     Using radial grid of 2342 points,  6 beta functions with:
                l(1) =   0
                l(2) =   0
                l(3) =   1
                l(4) =   1
                l(5) =   2
                l(6) =   2
     Q(r) pseudized with 0 coefficients

     PseudoPot. # 2 for C  read from file:
     /mnt/ceph/glen3534/Prep/Adsorption/CO2Cu/CO2Cu.save/C.upf
     MD5 check sum: 97f42ffd943b0217b1b3b9cef70c8633
     Pseudo is Projector augmented-wave + core cor, Zval =  4.0
     Generated using ATOMPAW code
     Shape of augmentation charge: SINC**2
     Using radial grid of 2342 points,  4 beta functions with:
                l(1) =   0
                l(2) =   0
                l(3) =   1
                l(4) =   1
     Q(r) pseudized with 0 coefficients

     PseudoPot. # 3 for O  read from file:
     /mnt/ceph/glen3534/Prep/Adsorption/CO2Cu/CO2Cu.save/O.upf
     MD5 check sum: 45fbb1c0d1f8837f1e386a2947d3aa26
     Pseudo is Projector augmented-wave + core cor, Zval =  6.0
     Generated using ATOMPAW code
     Shape of augmentation charge: SINC**2
     Using radial grid of 2342 points,  4 beta functions with:
                l(1) =   0
                l(2) =   0
                l(3) =   1
                l(4) =   1
     Q(r) pseudized with 0 coefficients

     atomic species   valence    mass     pseudopotential
        Cu            19.00    63.54600     Cu( 1.00)
        C              4.00    12.01100     C ( 1.00)
        O              6.00    15.99900     O ( 1.00)

      2 Sym. Ops. (no inversion) found

                                    s                        frac. trans.

      isym =  1     identity

 cryst.   s( 1) = (     1          0          0      )
                  (     0          1          0      )
                  (     0          0          1      )

 cart.    s( 1) = (  1.0000000  0.0000000  0.0000000 )
                  (  0.0000000  1.0000000  0.0000000 )
                  (  0.0000000  0.0000000  1.0000000 )

      isym =  2     inv. 180 deg rotation - cart. axis [1,0,0]

 cryst.   s( 2) = (    -1          0          0      )
                  (    -1          1          0      )
                  (     0          0          1      )

 cart.    s( 2) = ( -1.0000000  0.0000000  0.0000000 )
                  (  0.0000000  1.0000000  0.0000000 )
                  (  0.0000000  0.0000000  1.0000000 )

     point group C_s (m)
     there are  2 classes
     the character table:

       E     s
A'     1.00  1.00
A''    1.00 -1.00

     the symmetry operations in each class and the name of the first element:

     E        1
          identity
     s        2
          inv. 180 deg rotation - cart. axis [1,0,0]

   Cartesian axes

     site n.     atom                  positions (alat units)
         1           Cu  tau(   1) = (   0.0000000   0.0000000   0.0000000  )
         2           Cu  tau(   2) = (   0.5000001   0.0000000   0.0000000  )
         3           Cu  tau(   3) = (   0.2500000   0.4330128   0.0000000  )
         4           Cu  tau(   4) = (   0.7500001   0.4330128   0.0000000  )
         5           Cu  tau(   5) = (   0.2500000   0.1443376   0.4082484  )
         6           Cu  tau(   6) = (   0.7500001   0.1443376   0.4082484  )
         7           Cu  tau(   7) = (   0.5000001   0.5773504   0.4082484  )
         8           Cu  tau(   8) = (   1.0000002   0.5773504   0.4082484  )
         9           Cu  tau(   9) = (   0.0000000   0.2890905   0.8054928  )
        10           Cu  tau(  10) = (   0.5000001   0.2882794   0.8078278  )
        11           Cu  tau(  11) = (   0.2492711   0.7215509   0.8062356  )
        12           Cu  tau(  12) = (   0.7507290   0.7215509   0.8062356  )
        13           Cu  tau(  13) = (  -0.0000000   0.0000513   1.2053075  )
        14           Cu  tau(  14) = (   0.5000001  -0.0001453   1.2153268  )
        15           Cu  tau(  15) = (   0.2498179   0.4330122   1.2120019  )
        16           Cu  tau(  16) = (   0.7501823   0.4330122   1.2120019  )
        17           O   tau(  17) = (  -0.2292363  -0.0000167   1.8260098  )
        18           C   tau(  18) = (  -0.0000000  -0.0000053   1.8253371  )
        19           O   tau(  19) = (   0.2292363  -0.0000167   1.8260098  )

   Crystallographic axes

     site n.     atom                  positions (cryst. coord.)
         1           Cu  tau(   1) = (  0.0000000  0.0000000  0.0000000  )
         2           Cu  tau(   2) = (  0.5000001  0.0000000  0.0000000  )
         3           Cu  tau(   3) = ( -0.0000000  0.5000001  0.0000000  )
         4           Cu  tau(   4) = (  0.5000001  0.5000001  0.0000000  )
         5           Cu  tau(   5) = (  0.1666667  0.1666667  0.0793912  )
         6           Cu  tau(   6) = (  0.6666668  0.1666667  0.0793912  )
         7           Cu  tau(   7) = (  0.1666667  0.6666668  0.0793912  )
         8           Cu  tau(   8) = (  0.6666668  0.6666668  0.0793912  )
         9           Cu  tau(   9) = ( -0.1669065  0.3338129  0.1566426  )
        10           Cu  tau(  10) = (  0.3335619  0.3328764  0.1570966  )
        11           Cu  tau(  11) = ( -0.1673165  0.8331752  0.1567870  )
        12           Cu  tau(  12) = (  0.3341414  0.8331752  0.1567870  )
        13           Cu  tau(  13) = ( -0.0000296  0.0000592  0.2343937  )
        14           Cu  tau(  14) = (  0.5000840 -0.0001678  0.2363422  )
        15           Cu  tau(  15) = ( -0.0001818  0.4999994  0.2356956  )
        16           Cu  tau(  16) = (  0.5001826  0.4999994  0.2356956  )
        17           O   tau(  17) = ( -0.2292267 -0.0000193  0.3551005  )
        18           C   tau(  18) = (  0.0000031 -0.0000061  0.3549696  )
        19           O   tau(  19) = (  0.2292459 -0.0000193  0.3551005  )

     number of k points=     7  Gaussian smearing, width (Ry)=  0.0100
                       cart. coord. in units 2pi/alat
        k(    1) = (   0.0000000   0.0000000   0.0000000), wk =   0.1250000
        k(    2) = (   0.0000000   0.2886751   0.0000000), wk =   0.2500000
        k(    3) = (   0.0000000  -0.5773503   0.0000000), wk =   0.1250000
        k(    4) = (   0.2500000  -0.7216878   0.0000000), wk =   0.5000000
        k(    5) = (  -0.2500000   0.1443376   0.0000000), wk =   0.5000000
        k(    6) = (   0.5000000  -0.2886751   0.0000000), wk =   0.2500000
        k(    7) = (  -0.5000000  -0.5773503   0.0000000), wk =   0.2500000

                       cryst. coord.
        k(    1) = (   0.0000000   0.0000000   0.0000000), wk =   0.1250000
        k(    2) = (   0.0000000   0.2500000   0.0000000), wk =   0.2500000
        k(    3) = (   0.0000000  -0.5000000   0.0000000), wk =   0.1250000
        k(    4) = (   0.2500000  -0.5000000   0.0000000), wk =   0.5000000
        k(    5) = (  -0.2500000   0.0000000   0.0000000), wk =   0.5000000
        k(    6) = (   0.5000000   0.0000000   0.0000000), wk =   0.2500000
        k(    7) = (  -0.5000000  -0.7500000   0.0000000), wk =   0.2500000

     Check: negative core charge=   -0.000009

     Initial potential from superposition of free atoms

     starting charge     319.9947, renormalised to     320.0000

     negative rho (up, down):  7.046E-03 0.000E+00
     Starting wfcs are  312 randomized atomic wfcs
     Checking if some PAW data can be deallocated...

     Self-consistent Calculation

     iteration #  1     ecut=    80.00 Ry     beta= 0.70
     Davidson diagonalization with overlap

     ethr =  1.00E-02,  avg # of iterations = 12.0

     negative rho (up, down):  2.137E-03 0.000E+00

     total energy              =   -7862.42901189 Ry
     estimated scf accuracy    <      24.42914505 Ry

[...]

     c_bands:  1 eigenvalues not converged
     ethr =  2.71E-04,  avg # of iterations = 15.6

[...]

     c_bands:  2 eigenvalues not converged
     c_bands:  1 eigenvalues not converged
     ethr =  5.00E-06,  avg # of iterations = 14.4

[...]

     total energy              =   -7892.05105059 Ry
     estimated scf accuracy    <       0.00000131 Ry

     iteration # 33     ecut=    80.00 Ry     beta= 0.70
     Davidson diagonalization with overlap

     ethr =  4.08E-10,  avg # of iterations =  2.7

     negative rho (up, down):  7.520E-03 0.000E+00

     End of self-consistent calculation

          k = 0.0000 0.0000 0.0000 ( 48435 PWs)   bands (ev):

  -108.9918-108.9829-108.9806-108.9803-108.9747-108.9743-108.9724-108.9715
  -108.7996-108.7598-108.7549-108.7491-108.7409-108.7408-108.7396-108.7381
   -66.4129 -66.4067 -66.4045 -66.4043 -66.4018 -66.4018 -66.4004 -66.3678
   -66.3665 -66.3638 -66.3527 -66.3504 -66.3502 -66.3464 -66.3398 -66.3390
   -66.3382 -66.3233 -66.3233 -66.3220 -66.3149 -66.3144 -66.3041 -66.3041
   -66.2327 -66.2299 -66.2106 -66.2023 -66.2008 -66.1997 -66.1656 -66.1652
   -66.1499 -66.1408 -66.1407 -66.1406 -66.1341 -66.1316 -66.1199 -66.1199
   -66.1182 -66.0683 -66.0640 -66.0541 -66.0483 -66.0469 -66.0456 -66.0437
   -20.7797 -19.7362  -5.7170  -5.3922  -4.4193  -4.2353  -4.0137  -3.7514
    -2.3791  -1.5390  -1.2827  -1.2807  -1.2792  -1.1602  -1.1594  -1.1542
    -0.7391  -0.7371  -0.7301  -0.6844  -0.6749  -0.6635  -0.6476  -0.6236
    -0.6158  -0.6042  -0.5837  -0.2282  -0.2273  -0.2207   0.3464   0.3548
     0.3587   0.5646   0.5662   0.5671   0.5729   0.5838   0.6335   0.6336
     0.6764   0.6779   0.7040   0.7066   0.7081   0.8664   0.8737   0.8749
     0.8852   0.8907   0.8954   0.9276   0.9277   1.2099   1.2114   1.2149
     1.2255   1.2277   1.2313   1.4619   1.4621   1.5996   1.5999   1.7103
     1.7105   1.7150   1.7861   1.7950   1.7970   1.8749   1.8752   1.9870
     1.9879   1.9893   1.9909   1.9998   2.0010   2.0380   2.0383   2.0385
     2.0398   2.0405   2.1166   2.1168   2.1176   2.2225   2.2249   2.2357
     2.2474   2.2480   2.2493   2.4440   3.3480   3.3543   3.3604   3.4430
     4.3720   4.3815   4.3852   4.9322   4.9357   4.9468   5.1512   5.1597
     5.1652   6.8712   7.4466   7.4857   7.6185   7.9469   7.9585   7.9904
     8.0196   8.4453   8.7417   8.7632   8.9195   9.5935   9.7285   9.7584
     9.9718  10.0281  10.9509  11.0207  11.0395  11.5779  12.1670  12.2741

     occupation numbers
     1.0000   1.0000   1.0000   1.0000   1.0000   1.0000   1.0000   1.0000
     1.0000   1.0000   1.0000   1.0000   1.0000   1.0000   1.0000   1.0000
     1.0000   1.0000   1.0000   1.0000   1.0000   1.0000   1.0000   1.0000
     1.0000   1.0000   1.0000   1.0000   1.0000   1.0000   1.0000   1.0000
     1.0000   1.0000   1.0000   1.0000   1.0000   1.0000   1.0000   1.0000
     1.0000   1.0000   1.0000   1.0000   1.0000   1.0000   1.0000   1.0000
     1.0000   1.0000   1.0000   1.0000   1.0000   1.0000   1.0000   1.0000
     1.0000   1.0000   1.0000   1.0000   1.0000   1.0000   1.0000   1.0000
     1.0000   1.0000   1.0000   1.0000   1.0000   1.0000   1.0000   1.0000
     1.0000   1.0000   1.0000   1.0000   1.0000   1.0000   1.0000   1.0000
     1.0000   1.0000   1.0000   1.0000   1.0000   1.0000   1.0000   1.0000
     1.0000   1.0000   1.0000   1.0000   1.0000   1.0000   1.0000   1.0000
     1.0000   1.0000   1.0000   1.0000   1.0000   1.0000   1.0000   1.0000
     1.0000   1.0000   1.0000   1.0000   1.0000   1.0000   1.0000   1.0000
     1.0000   1.0000   1.0000   1.0000   1.0000   1.0000   1.0000   1.0000
     1.0000   1.0000   1.0000   1.0000   1.0000   1.0000   1.0000   1.0000
     1.0000   1.0000   1.0000   1.0000   1.0000   1.0000   1.0000   1.0000
     1.0000   1.0000   1.0000   1.0000   1.0000   1.0000   1.0000   1.0000
     1.0000   1.0000   1.0000   1.0000   1.0000   1.0000   1.0000   1.0000
     1.0000   1.0000   1.0000   1.0000   0.9760   0.9721   0.9678   0.8388
     0.0000   0.0000   0.0000   0.0000   0.0000   0.0000   0.0000   0.0000
     0.0000   0.0000   0.0000   0.0000   0.0000   0.0000   0.0000   0.0000
     0.0000   0.0000   0.0000   0.0000   0.0000   0.0000   0.0000   0.0000
     0.0000   0.0000   0.0000   0.0000   0.0000   0.0000   0.0000   0.0000

[...]

          k =-0.2500 0.1443 0.0000 ( 48310 PWs)   bands (ev):

[...]

          k = 0.5000-0.2887 0.0000 ( 48322 PWs)   bands (ev):

[...]

          k =-0.5000-0.5774 0.0000 ( 48288 PWs)   bands (ev):

  -108.9882-108.9834-108.9829-108.9784-108.9756-108.9752-108.9731-108.9717
  -108.7993-108.7574-108.7572-108.7457-108.7420-108.7419-108.7412-108.7381
   -66.4044 -66.3978 -66.3965 -66.3911 -66.3903 -66.3802 -66.3793 -66.3710
   -66.3610 -66.3597 -66.3592 -66.3586 -66.3467 -66.3457 -66.3446 -66.3433
   -66.3387 -66.3351 -66.3346 -66.3336 -66.3245 -66.3226 -66.3212 -66.3133
   -66.2205 -66.2127 -66.1890 -66.1871 -66.1792 -66.1768 -66.1766 -66.1691
   -66.1654 -66.1614 -66.1511 -66.1493 -66.1400 -66.1396 -66.1395 -66.1293
   -66.1180 -66.0662 -66.0660 -66.0512 -66.0485 -66.0477 -66.0475 -66.0438
   -20.7489 -19.7768  -4.9694  -4.6335  -4.3127  -4.2275  -3.9436  -2.7207
    -2.3436  -2.3417  -1.4837  -1.4796  -1.2701  -0.8348  -0.7592  -0.7090
    -0.7043  -0.6604  -0.6088  -0.5881  -0.3658  -0.3641  -0.3489  -0.2657
    -0.1325  -0.0882  -0.0853  -0.0726   0.0088   0.0130   0.0820   0.0943
     0.1581   0.1672   0.1694   0.2507   0.3940   0.3991   0.4081   0.4370
     0.5561   0.5992   0.6272   0.6328   0.6414   0.7046   0.7109   0.7864
     0.7879   0.7949   0.8100   0.8561   0.8909   0.8980   0.9576   0.9814
     1.0201   1.0224   1.0331   1.0973   1.1996   1.2113   1.2731   1.2755
     1.2824   1.2845   1.4056   1.4058   1.4174   1.5085   1.5123   1.5593
     1.5610   1.6030   1.6443   1.6919   1.6941   1.7554   1.7767   1.8290
     1.8934   1.8957   1.8993   1.9003   1.9406   1.9764   1.9823   2.0302
     2.0313   2.0398   2.1675   2.1684   2.2915   2.2977   2.4373   3.4264
     3.4430   4.1512   5.7084   5.7214   5.8629   5.9469   6.2334   6.8378
     7.4139   7.9666   7.9817   8.0487   8.2451   8.5478   8.8360   8.8775
     9.4074   9.5488   9.7505   9.9127  10.4092  10.4891  10.6597  10.6704
    10.7376  11.0646  11.2397  11.2659  11.3642  11.4983  11.5608  11.7420

     occupation numbers
     1.0000   1.0000   1.0000   1.0000   1.0000   1.0000   1.0000   1.0000
     1.0000   1.0000   1.0000   1.0000   1.0000   1.0000   1.0000   1.0000
     1.0000   1.0000   1.0000   1.0000   1.0000   1.0000   1.0000   1.0000
     1.0000   1.0000   1.0000   1.0000   1.0000   1.0000   1.0000   1.0000
     1.0000   1.0000   1.0000   1.0000   1.0000   1.0000   1.0000   1.0000
     1.0000   1.0000   1.0000   1.0000   1.0000   1.0000   1.0000   1.0000
     1.0000   1.0000   1.0000   1.0000   1.0000   1.0000   1.0000   1.0000
     1.0000   1.0000   1.0000   1.0000   1.0000   1.0000   1.0000   1.0000
     1.0000   1.0000   1.0000   1.0000   1.0000   1.0000   1.0000   1.0000
     1.0000   1.0000   1.0000   1.0000   1.0000   1.0000   1.0000   1.0000
     1.0000   1.0000   1.0000   1.0000   1.0000   1.0000   1.0000   1.0000
     1.0000   1.0000   1.0000   1.0000   1.0000   1.0000   1.0000   1.0000
     1.0000   1.0000   1.0000   1.0000   1.0000   1.0000   1.0000   1.0000
     1.0000   1.0000   1.0000   1.0000   1.0000   1.0000   1.0000   1.0000
     1.0000   1.0000   1.0000   1.0000   1.0000   1.0000   1.0000   1.0000
     1.0000   1.0000   1.0000   1.0000   1.0000   1.0000   1.0000   1.0000
     1.0000   1.0000   1.0000   1.0000   1.0000   1.0000   1.0000   1.0000
     1.0000   1.0000   1.0000   1.0000   1.0000   1.0000   1.0000   1.0000
     1.0000   1.0000   1.0000   1.0000   1.0000   1.0000   1.0000   1.0000
     1.0000   1.0000   1.0000   1.0000   1.0000   1.0000   1.0000   0.8775
     0.8390   0.0000   0.0000   0.0000   0.0000   0.0000   0.0000   0.0000
     0.0000   0.0000   0.0000   0.0000   0.0000   0.0000   0.0000   0.0000
     0.0000   0.0000   0.0000   0.0000   0.0000   0.0000   0.0000   0.0000
     0.0000   0.0000   0.0000   0.0000   0.0000   0.0000   0.0000   0.0000

     the Fermi energy is     3.5382 ev

!    total energy              =   -7892.05104998 Ry

     total all-electron energy =     -7892.051050 Ry
     estimated scf accuracy    <       0.00000089 Ry
     smearing contrib. (-TS)   =      -0.00755859 Ry
     internal energy E=F+TS    =   -7892.04349138 Ry

     The total energy is F=E-TS. E is the sum of the following terms:
     one-electron contribution =  -61229.23221674 Ry
     hartree contribution      =   29760.98242566 Ry
     xc contribution           =    -524.01063365 Ry
     ewald contribution        =   24842.95858158 Ry
     Dispersion Correction     =      -0.37287355 Ry
     one-center paw contrib.   =    -742.36877468 Ry
      -> PAW hartree energy AE =     328.85981930 Ry
      -> PAW hartree energy PS =    -270.05718025 Ry
      -> PAW xc energy AE      =    -134.20785562 Ry
      -> PAW xc energy PS      =      30.65384414 Ry
      -> total E_H with PAW    =   29819.78506470 Ry
      -> total E_XC with PAW   =    -627.56464512 Ry

     convergence has been achieved in  33 iterations

     Writing all to output data dir ./CO2Cuontop.save/

     General routines

     Parallel routines

     PAW routines

   This run was terminated on:  10:23:31   8Jul2022

   JOB DONE.