     Program PHONON v.7.0 starts on 15Jul2022 at 18: 7:36

     R & G space division:  proc/nbgrp/npool/nimage =      64

     Waiting for input...
     Reading input from standard input
      Title line not specified: using 'default'.

     Reading xml data from directory:

     ./CO2Cufcc.save/
     Message from routine read_pp_mesh:
     mismatch in mesh size, discarding the one in header
     Message from routine read_pp_mesh:
     mismatch in mesh size, discarding the one in header
     Message from routine read_pp_mesh:
     mismatch in mesh size, discarding the one in header

     IMPORTANT: XC functional enforced from input :
     Exchange-correlation= PBE
                           (   1   4   3   4   0   0   0)
     Any further DFT definition will be discarded
     Please, verify this is what you really want

     Using Slab Decomposition

     Check: negative core charge=   -0.000009

     negative rho (up, down):  7.592E-03 0.000E+00
     Reading collected, re-writing distributed wavefunctions

     Dynamical matrices for ( 1, 1, 1)  uniform grid of q-points
     (   1 q-points):
       N         xq(1)         xq(2)         xq(3)
       1   0.000000000   0.000000000   0.000000000

     Calculation of q =    0.0000000   0.0000000   0.0000000

     default

     bravais-lattice index     =           14
     lattice parameter (alat)  =       9.6476  a.u.
     unit-cell volume          =    3998.9451 (a.u.)^3
     number of atoms/cell      =           19
     number of atomic types    =            3
     kinetic-energy cut-off    =      80.0000  Ry
     charge density cut-off    =     320.0000  Ry
     convergence threshold     =      1.0E-12
     beta                      =       0.3000
     number of iterations used =            4
     Exchange-correlation= PBE
                           (   1   4   3   4   0   0   0)

     celldm(1)=    9.64764  celldm(2)=    1.00000  celldm(3)=    5.14223
     celldm(4)=    0.00000  celldm(5)=    0.00000  celldm(6)=    0.50000

     crystal axes: (cart. coord. in units of alat)
               a(1) = (  1.0000  0.0000  0.0000 )
               a(2) = (  0.5000  0.8660  0.0000 )
               a(3) = (  0.0000  0.0000  5.1422 )

     reciprocal axes: (cart. coord. in units 2 pi/alat)
               b(1) = (  1.0000 -0.5774  0.0000 )
               b(2) = (  0.0000  1.1547  0.0000 )
               b(3) = (  0.0000  0.0000  0.1945 )

     Atoms inside the unit cell:

     Cartesian axes

     site n.  atom      mass           positions (alat units)
        1     Cu  63.5460   tau(    1) = (    0.00000    0.00000    0.00000  )
        2     Cu  63.5460   tau(    2) = (    0.50000    0.00000    0.00000  )
        3     Cu  63.5460   tau(    3) = (    0.25000    0.43301    0.00000  )
        4     Cu  63.5460   tau(    4) = (    0.75000    0.43301    0.00000  )
        5     Cu  63.5460   tau(    5) = (    0.25000    0.14434    0.40825  )
        6     Cu  63.5460   tau(    6) = (    0.75000    0.14434    0.40825  )
        7     Cu  63.5460   tau(    7) = (    0.50000    0.57735    0.40825  )
        8     Cu  63.5460   tau(    8) = (    1.00000    0.57735    0.40825  )
        9     Cu  63.5460   tau(    9) = (   -0.00041    0.28859    0.80665  )
       10     Cu  63.5460   tau(   10) = (    0.50041    0.28859    0.80665  )
       11     Cu  63.5460   tau(   11) = (    0.25000    0.72204    0.80569  )
       12     Cu  63.5460   tau(   12) = (    0.75000    0.72159    0.80657  )
       13     Cu  63.5460   tau(   13) = (   -0.00001   -0.00014    1.21165  )
       14     Cu  63.5460   tau(   14) = (    0.50001   -0.00014    1.21165  )
       15     Cu  63.5460   tau(   15) = (    0.25000    0.43364    1.20910  )
       16     Cu  63.5460   tau(   16) = (    0.75000    0.43383    1.21395  )
       17     O   15.9990   tau(   17) = (    0.02079    0.14388    1.81663  )
       18     C   12.0110   tau(   18) = (    0.25000    0.14398    1.81544  )
       19     O   15.9990   tau(   19) = (    0.47921    0.14388    1.81663  )

     Computing dynamical matrix for
                    q = (   0.0000000   0.0000000   0.0000000 )

      3 Sym.Ops. (with q -> -q+G )

     G cutoff =  754.4530  (   6042 G-vectors)     FFT grid: ( 60, 60,288)

     number of k points=     7  Gaussian smearing, width (Ry)=  0.0100

     PseudoPot. # 1 for Cu read from file:
     /mnt/ceph/glen3534/Prep/Adsorption/CO2Cu/CO2Cu.save/Cu.upf
     MD5 check sum: 69e544ce53ba1f79758756dbb2f8fbdd
     Pseudo is Projector augmented-wave + core cor, Zval = 19.0
     Generated using ATOMPAW code
     Shape of augmentation charge: SINC**2
     Using radial grid of 2342 points,  6 beta functions with:
                l(1) =   0
                l(2) =   0
                l(3) =   1
                l(4) =   1
                l(5) =   2
                l(6) =   2
     Q(r) pseudized with 0 coefficients

     PseudoPot. # 2 for C  read from file:
     /mnt/ceph/glen3534/Prep/Adsorption/CO2Cu/CO2Cu.save/C.upf
     MD5 check sum: 97f42ffd943b0217b1b3b9cef70c8633
     Pseudo is Projector augmented-wave + core cor, Zval =  4.0
     Generated using ATOMPAW code
     Shape of augmentation charge: SINC**2
     Using radial grid of 2342 points,  4 beta functions with:
                l(1) =   0
                l(2) =   0
                l(3) =   1
                l(4) =   1
     Q(r) pseudized with 0 coefficients

     PseudoPot. # 3 for O  read from file:
     /mnt/ceph/glen3534/Prep/Adsorption/CO2Cu/CO2Cu.save/O.upf
     MD5 check sum: 45fbb1c0d1f8837f1e386a2947d3aa26
     Pseudo is Projector augmented-wave + core cor, Zval =  6.0
     Generated using ATOMPAW code
     Shape of augmentation charge: SINC**2
     Using radial grid of 2342 points,  4 beta functions with:
                l(1) =   0
                l(2) =   0
                l(3) =   1
                l(4) =   1
     Q(r) pseudized with 0 coefficients

     Mode symmetry, C_s (m)     point group:

     Atomic displacements:
     There are   57 irreducible representations

     Representation     1      1 modes -  To be done

[...]

     Representation    57      1 modes -  To be done

     Alpha used in Ewald sum =   2.6000

     Parameters for Dispersion (Grimme-D2) Correction:
       atom      VdW radius       C_6

        Cu         2.952        374.666
        C          2.744         60.710
        O          2.536         24.284

     Calculating the D2 contribution to the dynamical matrix.
     D2 energy =       -0.37404594 Ry
     Done.

     negative rho (up, down):  7.592E-03 0.000E+00

     Representation #   1 mode #   1

     Self-consistent Calculation

     Pert. #  1: Fermi energy shift (Ry) =     2.5207E-02    -5.2940E-23

      thresh= 1.000E-02 alpha_mix =  0.300 |ddv_scf|^2 =  6.732E-07

[...]

     End of self-consistent calculation

     Convergence has been achieved

[...]

     Representation #  57 mode #  57

     Self-consistent Calculation

[...]

     Pert. #  1: Fermi energy shift (Ry) =     0.0000E+00     0.0000E+00

      thresh= 1.219E-07 alpha_mix =  0.100 |ddv_scf|^2 =  4.875E-13

     End of self-consistent calculation

     Convergence has been achieved

     Number of q in the star =    1
     List of q in the star:
          1   0.000000000   0.000000000   0.000000000

     Diagonalizing the dynamical matrix

     q = (    0.000000000   0.000000000   0.000000000 )

     freq (    1) =      -9.070242 [THz] =    -302.550710 [cm-1]
     freq (    2) =      -8.471475 [THz] =    -282.577976 [cm-1]
     freq (    3) =      -8.381079 [THz] =    -279.562702 [cm-1]
     freq (    4) =      -7.949875 [THz] =    -265.179294 [cm-1]
     freq (    5) =      -7.657449 [THz] =    -255.425003 [cm-1]
     freq (    6) =      -6.962169 [THz] =    -232.232960 [cm-1]
     freq (    7) =      -6.305233 [THz] =    -210.319931 [cm-1]
     freq (    8) =      -6.298556 [THz] =    -210.097201 [cm-1]
     freq (    9) =      -5.726424 [THz] =    -191.012954 [cm-1]
     freq (   10) =      -5.222056 [THz] =    -174.189029 [cm-1]
     freq (   11) =      -4.908629 [THz] =    -163.734242 [cm-1]
     freq (   12) =      -4.812271 [THz] =    -160.520078 [cm-1]
     freq (   13) =      -4.554801 [THz] =    -151.931804 [cm-1]
     freq (   14) =      -3.677709 [THz] =    -122.675178 [cm-1]
     freq (   15) =      -3.665667 [THz] =    -122.273499 [cm-1]
     freq (   16) =      -3.250589 [THz] =    -108.427973 [cm-1]
     freq (   17) =      -2.506889 [THz] =     -83.620811 [cm-1]
     freq (   18) =      -1.013106 [THz] =     -33.793580 [cm-1]
     freq (   19) =       0.511961 [THz] =      17.077179 [cm-1]
     freq (   20) =       1.878074 [THz] =      62.645792 [cm-1]
     freq (   21) =       2.495131 [THz] =      83.228611 [cm-1]
     freq (   22) =       3.275364 [THz] =     109.254388 [cm-1]
     freq (   23) =       3.279055 [THz] =     109.377490 [cm-1]
     freq (   24) =       3.749919 [THz] =     125.083836 [cm-1]
     freq (   25) =       4.902294 [THz] =     163.522915 [cm-1]
     freq (   26) =       5.070196 [THz] =     169.123518 [cm-1]
     freq (   27) =       5.528719 [THz] =     184.418221 [cm-1]
     freq (   28) =       5.613086 [THz] =     187.232403 [cm-1]
     freq (   29) =       5.634088 [THz] =     187.932949 [cm-1]
     freq (   30) =       5.693243 [THz] =     189.906143 [cm-1]
     freq (   31) =       5.788178 [THz] =     193.072829 [cm-1]
     freq (   32) =       5.967426 [THz] =     199.051890 [cm-1]
     freq (   33) =       6.259958 [THz] =     208.809729 [cm-1]
     freq (   34) =       6.543562 [THz] =     218.269736 [cm-1]
     freq (   35) =       6.664523 [THz] =     222.304570 [cm-1]
     freq (   36) =       7.033323 [THz] =     234.606391 [cm-1]
     freq (   37) =       7.315146 [THz] =     244.006997 [cm-1]
     freq (   38) =       7.510421 [THz] =     250.520694 [cm-1]
     freq (   39) =       7.622676 [THz] =     254.265106 [cm-1]
     freq (   40) =       7.796820 [THz] =     260.073916 [cm-1]
     freq (   41) =       7.855700 [THz] =     262.037933 [cm-1]
     freq (   42) =       7.970358 [THz] =     265.862541 [cm-1]
     freq (   43) =       8.105971 [THz] =     270.386101 [cm-1]
     freq (   44) =       8.363987 [THz] =     278.992560 [cm-1]
     freq (   45) =       8.604829 [THz] =     287.026198 [cm-1]
     freq (   46) =       8.656635 [THz] =     288.754247 [cm-1]
     freq (   47) =       9.138734 [THz] =     304.835337 [cm-1]
     freq (   48) =       9.207696 [THz] =     307.135670 [cm-1]
     freq (   49) =       9.320714 [THz] =     310.905541 [cm-1]
     freq (   50) =       9.557586 [THz] =     318.806766 [cm-1]
     freq (   51) =      10.015347 [THz] =     334.076006 [cm-1]
     freq (   52) =      10.602743 [THz] =     353.669441 [cm-1]
     freq (   53) =      11.404440 [THz] =     380.411155 [cm-1]
     freq (   54) =      17.922467 [THz] =     597.829135 [cm-1]
     freq (   55) =      18.852268 [THz] =     628.843965 [cm-1]
     freq (   56) =      40.136772 [THz] =    1338.818593 [cm-1]
     freq (   57) =      70.748114 [THz] =    2359.903061 [cm-1]

     Mode symmetry, C_s (m)     point group:

     freq (   1-   1) =       -302.6  [cm-1]   --> A''             I+R
     freq (   2-   2) =       -282.6  [cm-1]   --> A''             I+R
     freq (   3-   3) =       -279.6  [cm-1]   --> A''             I+R
     freq (   4-   4) =       -265.2  [cm-1]   --> A''             I+R
     freq (   5-   5) =       -255.4  [cm-1]   --> A''             I+R
     freq (   6-   6) =       -232.2  [cm-1]   --> A''             I+R
     freq (   7-   7) =       -210.3  [cm-1]   --> A''             I+R
     freq (   8-   8) =       -210.1  [cm-1]   --> A''             I+R
     freq (   9-   9) =       -191.0  [cm-1]   --> A''             I+R
     freq (  10-  10) =       -174.2  [cm-1]   --> A''             I+R
     freq (  11-  11) =       -163.7  [cm-1]   --> A'              I+R
     freq (  12-  12) =       -160.5  [cm-1]   --> A''             I+R
     freq (  13-  13) =       -151.9  [cm-1]   --> A''             I+R
     freq (  14-  14) =       -122.7  [cm-1]   --> A''             I+R
     freq (  15-  15) =       -122.3  [cm-1]   --> A'              I+R
     freq (  16-  16) =       -108.4  [cm-1]   --> A''             I+R
     freq (  17-  17) =        -83.6  [cm-1]   --> A''             I+R
     freq (  18-  18) =        -33.8  [cm-1]   --> A'              I+R
     freq (  19-  19) =         17.1  [cm-1]   --> A''             I+R
     freq (  20-  20) =         62.6  [cm-1]   --> A'              I+R
     freq (  21-  21) =         83.2  [cm-1]   --> A'              I+R
     freq (  22-  22) =        109.3  [cm-1]   --> A'              I+R
     freq (  23-  23) =        109.4  [cm-1]   --> A''             I+R
     freq (  24-  24) =        125.1  [cm-1]   --> A'              I+R
     freq (  25-  25) =        163.5  [cm-1]   --> A'              I+R
     freq (  26-  26) =        169.1  [cm-1]   --> A'              I+R
     freq (  27-  27) =        184.4  [cm-1]   --> A'              I+R
     freq (  28-  28) =        187.2  [cm-1]   --> A'              I+R
     freq (  29-  29) =        187.9  [cm-1]   --> A'              I+R
     freq (  30-  30) =        189.9  [cm-1]   --> A''             I+R
     freq (  31-  31) =        193.1  [cm-1]   --> A'              I+R
     freq (  32-  32) =        199.1  [cm-1]   --> A'              I+R
     freq (  33-  33) =        208.8  [cm-1]   --> A'              I+R
     freq (  34-  34) =        218.3  [cm-1]   --> A''             I+R
     freq (  35-  35) =        222.3  [cm-1]   --> A'              I+R
     freq (  36-  36) =        234.6  [cm-1]   --> A'              I+R
     freq (  37-  37) =        244.0  [cm-1]   --> A''             I+R
     freq (  38-  38) =        250.5  [cm-1]   --> A'              I+R
     freq (  39-  39) =        254.3  [cm-1]   --> A'              I+R
     freq (  40-  40) =        260.1  [cm-1]   --> A'              I+R
     freq (  41-  41) =        262.0  [cm-1]   --> A'              I+R
     freq (  42-  42) =        265.9  [cm-1]   --> A''             I+R
     freq (  43-  43) =        270.4  [cm-1]   --> A'              I+R
     freq (  44-  44) =        279.0  [cm-1]   --> A'              I+R
     freq (  45-  45) =        287.0  [cm-1]   --> A'              I+R
     freq (  46-  46) =        288.8  [cm-1]   --> A''             I+R
     freq (  47-  47) =        304.8  [cm-1]   --> A'              I+R
     freq (  48-  48) =        307.1  [cm-1]   --> A''             I+R
     freq (  49-  49) =        310.9  [cm-1]   --> A'              I+R
     freq (  50-  50) =        318.8  [cm-1]   --> A'              I+R
     freq (  51-  51) =        334.1  [cm-1]   --> A'              I+R
     freq (  52-  52) =        353.7  [cm-1]   --> A'              I+R
     freq (  53-  53) =        380.4  [cm-1]   --> A'              I+R
     freq (  54-  54) =        597.8  [cm-1]   --> A'              I+R
     freq (  55-  55) =        628.8  [cm-1]   --> A'              I+R
     freq (  56-  56) =       1338.8  [cm-1]   --> A'              I+R
     freq (  57-  57) =       2359.9  [cm-1]   --> A''             I+R

     INITIALIZATION:

     DYNAMICAL MATRIX:

      General routines

   This run was terminated on:  21:20:25  28Jul2022

   JOB DONE.