     Program PHONON v.7.0 starts on 15Jul2022 at 16:34:35

     R & G space division:  proc/nbgrp/npool/nimage =      64

     Waiting for input...
     Reading input from standard input
      Title line not specified: using 'default'.

     Reading xml data from directory:

     ./CO2Cuontop.save/
     Message from routine read_pp_mesh:
     mismatch in mesh size, discarding the one in header
     Message from routine read_pp_mesh:
     mismatch in mesh size, discarding the one in header
     Message from routine read_pp_mesh:
     mismatch in mesh size, discarding the one in header

     IMPORTANT: XC functional enforced from input :
     Exchange-correlation= PBE
                           (   1   4   3   4   0   0   0)
     Any further DFT definition will be discarded
     Please, verify this is what you really want

     Using Slab Decomposition

     Check: negative core charge=   -0.000009

     negative rho (up, down):  7.520E-03 0.000E+00
     Reading collected, re-writing distributed wavefunctions

     Dynamical matrices for ( 1, 1, 1)  uniform grid of q-points
     (   1 q-points):
       N         xq(1)         xq(2)         xq(3)
       1   0.000000000   0.000000000   0.000000000

     Calculation of q =    0.0000000   0.0000000   0.0000000

     default

     bravais-lattice index     =           14
     lattice parameter (alat)  =       9.6476  a.u.
     unit-cell volume          =    3998.9451 (a.u.)^3
     number of atoms/cell      =           19
     number of atomic types    =            3
     kinetic-energy cut-off    =      80.0000  Ry
     charge density cut-off    =     320.0000  Ry
     convergence threshold     =      1.0E-12
     beta                      =       0.3000
     number of iterations used =            4
     Exchange-correlation= PBE
                           (   1   4   3   4   0   0   0)

     celldm(1)=    9.64764  celldm(2)=    1.00000  celldm(3)=    5.14223
     celldm(4)=    0.00000  celldm(5)=    0.00000  celldm(6)=    0.50000

     crystal axes: (cart. coord. in units of alat)
               a(1) = (  1.0000  0.0000  0.0000 )
               a(2) = (  0.5000  0.8660  0.0000 )
               a(3) = (  0.0000  0.0000  5.1422 )

     reciprocal axes: (cart. coord. in units 2 pi/alat)
               b(1) = (  1.0000 -0.5774  0.0000 )
               b(2) = (  0.0000  1.1547  0.0000 )
               b(3) = (  0.0000  0.0000  0.1945 )

     Atoms inside the unit cell:

     Cartesian axes

     site n.  atom      mass           positions (alat units)
        1     Cu  63.5460   tau(    1) = (    0.00000    0.00000    0.00000  )
        2     Cu  63.5460   tau(    2) = (    0.50000    0.00000    0.00000  )
        3     Cu  63.5460   tau(    3) = (    0.25000    0.43301    0.00000  )
        4     Cu  63.5460   tau(    4) = (    0.75000    0.43301    0.00000  )
        5     Cu  63.5460   tau(    5) = (    0.25000    0.14434    0.40825  )
        6     Cu  63.5460   tau(    6) = (    0.75000    0.14434    0.40825  )
        7     Cu  63.5460   tau(    7) = (    0.50000    0.57735    0.40825  )
        8     Cu  63.5460   tau(    8) = (    1.00000    0.57735    0.40825  )
        9     Cu  63.5460   tau(    9) = (    0.00000    0.28909    0.80549  )
       10     Cu  63.5460   tau(   10) = (    0.50000    0.28828    0.80783  )
       11     Cu  63.5460   tau(   11) = (    0.24927    0.72155    0.80624  )
       12     Cu  63.5460   tau(   12) = (    0.75073    0.72155    0.80624  )
       13     Cu  63.5460   tau(   13) = (    0.00000    0.00005    1.20531  )
       14     Cu  63.5460   tau(   14) = (    0.50000   -0.00015    1.21533  )
       15     Cu  63.5460   tau(   15) = (    0.24982    0.43301    1.21200  )
       16     Cu  63.5460   tau(   16) = (    0.75018    0.43301    1.21200  )
       17     O   15.9990   tau(   17) = (   -0.22924   -0.00002    1.82601  )
       18     C   12.0110   tau(   18) = (    0.00000   -0.00001    1.82534  )
       19     O   15.9990   tau(   19) = (    0.22924   -0.00002    1.82601  )

     Computing dynamical matrix for
                    q = (   0.0000000   0.0000000   0.0000000 )

      3 Sym.Ops. (with q -> -q+G )

     G cutoff =  754.4530  (   6042 G-vectors)     FFT grid: ( 60, 60,288)

     number of k points=     7  Gaussian smearing, width (Ry)=  0.0100

     PseudoPot. # 1 for Cu read from file:
     /mnt/ceph/glen3534/Prep/Adsorption/CO2Cu/CO2Cu.save/Cu.upf
     MD5 check sum: 69e544ce53ba1f79758756dbb2f8fbdd
     Pseudo is Projector augmented-wave + core cor, Zval = 19.0
     Generated using ATOMPAW code
     Shape of augmentation charge: SINC**2
     Using radial grid of 2342 points,  6 beta functions with:
                l(1) =   0
                l(2) =   0
                l(3) =   1
                l(4) =   1
                l(5) =   2
                l(6) =   2
     Q(r) pseudized with 0 coefficients

     PseudoPot. # 2 for C  read from file:
     /mnt/ceph/glen3534/Prep/Adsorption/CO2Cu/CO2Cu.save/C.upf
     MD5 check sum: 97f42ffd943b0217b1b3b9cef70c8633
     Pseudo is Projector augmented-wave + core cor, Zval =  4.0
     Generated using ATOMPAW code
     Shape of augmentation charge: SINC**2
     Using radial grid of 2342 points,  4 beta functions with:
                l(1) =   0
                l(2) =   0
                l(3) =   1
                l(4) =   1
     Q(r) pseudized with 0 coefficients

     PseudoPot. # 3 for O  read from file:
     /mnt/ceph/glen3534/Prep/Adsorption/CO2Cu/CO2Cu.save/O.upf
     MD5 check sum: 45fbb1c0d1f8837f1e386a2947d3aa26
     Pseudo is Projector augmented-wave + core cor, Zval =  6.0
     Generated using ATOMPAW code
     Shape of augmentation charge: SINC**2
     Using radial grid of 2342 points,  4 beta functions with:
                l(1) =   0
                l(2) =   0
                l(3) =   1
                l(4) =   1
     Q(r) pseudized with 0 coefficients

     Mode symmetry, C_s (m)     point group:

     Atomic displacements:
     There are   57 irreducible representations

     Representation     1      1 modes -  To be done

[...]

     Representation    57      1 modes -  To be done

     Alpha used in Ewald sum =   2.6000

     Parameters for Dispersion (Grimme-D2) Correction:
       atom      VdW radius       C_6

        Cu         2.952        374.666
        C          2.744         60.710
        O          2.536         24.284

     Calculating the D2 contribution to the dynamical matrix.
     D2 energy =       -0.37287355 Ry
     Done.

     negative rho (up, down):  7.520E-03 0.000E+00

     Representation #   1 mode #   1

     Self-consistent Calculation

     Pert. #  1: Fermi energy shift (Ry) =     1.2263E-02     5.2940E-23

      thresh= 1.000E-02 alpha_mix =  0.300 |ddv_scf|^2 =  2.148E-07

[...]

     End of self-consistent calculation

     Convergence has been achieved

[...]

     Representation #  57 mode #  57

     Self-consistent Calculation

[...]

     Pert. #  1: Fermi energy shift (Ry) =     0.0000E+00     0.0000E+00

      thresh= 7.609E-07 alpha_mix =  0.100 |ddv_scf|^2 =  9.477E-13

     End of self-consistent calculation

     Convergence has been achieved

     Number of q in the star =    1
     List of q in the star:
          1   0.000000000   0.000000000   0.000000000

     Diagonalizing the dynamical matrix

     q = (    0.000000000   0.000000000   0.000000000 )

     freq (    1) =      -9.345679 [THz] =    -311.738289 [cm-1]
     freq (    2) =      -9.227240 [THz] =    -307.787595 [cm-1]
     freq (    3) =      -8.813880 [THz] =    -293.999393 [cm-1]
     freq (    4) =      -8.107273 [THz] =    -270.429514 [cm-1]
     freq (    5) =      -8.068853 [THz] =    -269.147962 [cm-1]
     freq (    6) =      -7.884894 [THz] =    -263.011767 [cm-1]
     freq (    7) =      -6.825019 [THz] =    -227.658141 [cm-1]
     freq (    8) =      -6.477540 [THz] =    -216.067472 [cm-1]
     freq (    9) =      -6.117982 [THz] =    -204.073897 [cm-1]
     freq (   10) =      -5.970824 [THz] =    -199.165237 [cm-1]
     freq (   11) =      -5.019078 [THz] =    -167.418431 [cm-1]
     freq (   12) =      -4.886951 [THz] =    -163.011143 [cm-1]
     freq (   13) =      -4.554486 [THz] =    -151.921312 [cm-1]
     freq (   14) =      -4.039007 [THz] =    -134.726759 [cm-1]
     freq (   15) =      -3.751350 [THz] =    -125.131557 [cm-1]
     freq (   16) =      -1.530140 [THz] =     -51.039981 [cm-1]
     freq (   17) =       1.744353 [THz] =      58.185350 [cm-1]
     freq (   18) =       1.799051 [THz] =      60.009869 [cm-1]
     freq (   19) =       2.103563 [THz] =      70.167301 [cm-1]
     freq (   20) =       2.867498 [THz] =      95.649452 [cm-1]
     freq (   21) =       3.194969 [THz] =     106.572699 [cm-1]
     freq (   22) =       3.867852 [THz] =     129.017661 [cm-1]
     freq (   23) =       4.061276 [THz] =     135.469592 [cm-1]
     freq (   24) =       4.577704 [THz] =     152.695777 [cm-1]
     freq (   25) =       4.759420 [THz] =     158.757161 [cm-1]
     freq (   26) =       4.881125 [THz] =     162.816809 [cm-1]
     freq (   27) =       5.332757 [THz] =     177.881642 [cm-1]
     freq (   28) =       5.535366 [THz] =     184.639949 [cm-1]
     freq (   29) =       5.836660 [THz] =     194.690016 [cm-1]
     freq (   30) =       5.986835 [THz] =     199.699310 [cm-1]
     freq (   31) =       6.323110 [THz] =     210.916241 [cm-1]
     freq (   32) =       6.387464 [THz] =     213.062873 [cm-1]
     freq (   33) =       6.560446 [THz] =     218.832918 [cm-1]
     freq (   34) =       6.858255 [THz] =     228.766750 [cm-1]
     freq (   35) =       6.977364 [THz] =     232.739823 [cm-1]
     freq (   36) =       7.149938 [THz] =     238.496268 [cm-1]
     freq (   37) =       7.668895 [THz] =     255.806800 [cm-1]
     freq (   38) =       7.783456 [THz] =     259.628161 [cm-1]
     freq (   39) =       7.891212 [THz] =     263.222494 [cm-1]
     freq (   40) =       8.302795 [THz] =     276.951446 [cm-1]
     freq (   41) =       8.441622 [THz] =     281.582214 [cm-1]
     freq (   42) =       8.664849 [THz] =     289.028247 [cm-1]
     freq (   43) =       8.803371 [THz] =     293.648857 [cm-1]
     freq (   44) =       9.036848 [THz] =     301.436818 [cm-1]
     freq (   45) =       9.166302 [THz] =     305.754919 [cm-1]
     freq (   46) =       9.224780 [THz] =     307.705544 [cm-1]
     freq (   47) =       9.563702 [THz] =     319.010770 [cm-1]
     freq (   48) =       9.678844 [THz] =     322.851493 [cm-1]
     freq (   49) =      10.009694 [THz] =     333.887467 [cm-1]
     freq (   50) =      10.258545 [THz] =     342.188217 [cm-1]
     freq (   51) =      10.523673 [THz] =     351.031930 [cm-1]
     freq (   52) =      10.826882 [THz] =     361.145894 [cm-1]
     freq (   53) =      11.443122 [THz] =     381.701457 [cm-1]
     freq (   54) =      18.088244 [THz] =     603.358885 [cm-1]
     freq (   55) =      18.539863 [THz] =     618.423250 [cm-1]
     freq (   56) =      39.954299 [THz] =    1332.731953 [cm-1]
     freq (   57) =      70.845262 [THz] =    2363.143587 [cm-1]

     Mode symmetry, C_s (m)     point group:

     freq (   1-   1) =       -311.7  [cm-1]   --> A''             I+R
     freq (   2-   2) =       -307.8  [cm-1]   --> A''             I+R
     freq (   3-   3) =       -294.0  [cm-1]   --> A''             I+R
     freq (   4-   4) =       -270.4  [cm-1]   --> A''             I+R
     freq (   5-   5) =       -269.1  [cm-1]   --> A''             I+R
     freq (   6-   6) =       -263.0  [cm-1]   --> A''             I+R
     freq (   7-   7) =       -227.7  [cm-1]   --> A''             I+R
     freq (   8-   8) =       -216.1  [cm-1]   --> A''             I+R
     freq (   9-   9) =       -204.1  [cm-1]   --> A'              I+R
     freq (  10-  10) =       -199.2  [cm-1]   --> A''             I+R
     freq (  11-  11) =       -167.4  [cm-1]   --> A''             I+R
     freq (  12-  12) =       -163.0  [cm-1]   --> A''             I+R
     freq (  13-  13) =       -151.9  [cm-1]   --> A''             I+R
     freq (  14-  14) =       -134.7  [cm-1]   --> A''             I+R
     freq (  15-  15) =       -125.1  [cm-1]   --> A''             I+R
     freq (  16-  16) =        -51.0  [cm-1]   --> A''             I+R
     freq (  17-  17) =         58.2  [cm-1]   --> A''             I+R
     freq (  18-  18) =         60.0  [cm-1]   --> A'              I+R
     freq (  19-  19) =         70.2  [cm-1]   --> A'              I+R
     freq (  20-  20) =         95.6  [cm-1]   --> A'              I+R
     freq (  21-  21) =        106.6  [cm-1]   --> A'              I+R
     freq (  22-  22) =        129.0  [cm-1]   --> A''             I+R
     freq (  23-  23) =        135.5  [cm-1]   --> A'              I+R
     freq (  24-  24) =        152.7  [cm-1]   --> A'              I+R
     freq (  25-  25) =        158.8  [cm-1]   --> A'              I+R
     freq (  26-  26) =        162.8  [cm-1]   --> A''             I+R
     freq (  27-  27) =        177.9  [cm-1]   --> A'              I+R
     freq (  28-  28) =        184.6  [cm-1]   --> A'              I+R
     freq (  29-  29) =        194.7  [cm-1]   --> A''             I+R
     freq (  30-  30) =        199.7  [cm-1]   --> A''             I+R
     freq (  31-  31) =        210.9  [cm-1]   --> A''             I+R
     freq (  32-  32) =        213.1  [cm-1]   --> A'              I+R
     freq (  33-  33) =        218.8  [cm-1]   --> A'              I+R
     freq (  34-  34) =        228.8  [cm-1]   --> A'              I+R
     freq (  35-  35) =        232.7  [cm-1]   --> A'              I+R
     freq (  36-  36) =        238.5  [cm-1]   --> A'              I+R
     freq (  37-  37) =        255.8  [cm-1]   --> A'              I+R
     freq (  38-  38) =        259.6  [cm-1]   --> A'              I+R
     freq (  39-  39) =        263.2  [cm-1]   --> A'              I+R
     freq (  40-  40) =        277.0  [cm-1]   --> A''             I+R
     freq (  41-  41) =        281.6  [cm-1]   --> A'              I+R
     freq (  42-  42) =        289.0  [cm-1]   --> A'              I+R
     freq (  43-  43) =        293.6  [cm-1]   --> A'              I+R
     freq (  44-  44) =        301.4  [cm-1]   --> A'              I+R
     freq (  45-  45) =        305.8  [cm-1]   --> A''             I+R
     freq (  46-  46) =        307.7  [cm-1]   --> A'              I+R
     freq (  47-  47) =        319.0  [cm-1]   --> A'              I+R
     freq (  48-  48) =        322.9  [cm-1]   --> A'              I+R
     freq (  49-  49) =        333.9  [cm-1]   --> A'              I+R
     freq (  50-  50) =        342.2  [cm-1]   --> A'              I+R
     freq (  51-  51) =        351.0  [cm-1]   --> A'              I+R
     freq (  52-  52) =        361.1  [cm-1]   --> A'              I+R
     freq (  53-  53) =        381.7  [cm-1]   --> A'              I+R
     freq (  54-  54) =        603.4  [cm-1]   --> A'              I+R
     freq (  55-  55) =        618.4  [cm-1]   --> A'              I+R
     freq (  56-  56) =       1332.7  [cm-1]   --> A'              I+R
     freq (  57-  57) =       2363.1  [cm-1]   --> A''             I+R

     INITIALIZATION:

     DYNAMICAL MATRIX:

      General routines

   This run was terminated on:  10:40:29  23Jul2022

   JOB DONE.