     Program PWSCF v.7.0 starts on  8Jul2022 at  8:48:39

     R & G space division:  proc/nbgrp/npool/nimage =      24

     Waiting for input...
     Reading input from standard input

     Current dimensions of program PWSCF are:
     Max number of different atomic species (ntypx) = 10
     Max number of k-points (npk) =  40000
     Max angular momentum in pseudopotentials (lmaxx) =  4
     Message from routine read_pp_mesh:
     mismatch in mesh size, discarding the one in header
     Message from routine read_pp_mesh:
     mismatch in mesh size, discarding the one in header
     Message from routine read_pp_mesh:
     mismatch in mesh size, discarding the one in header

     Parameters for Dispersion (Grimme-D2) Correction:
       atom      VdW radius       C_6

        Cu         2.952        374.666
        C          2.744         60.710
        O          2.536         24.284

     Subspace diagonalization in iterative solution of the eigenvalue problem:
     a serial algorithm will be used

     Using Slab Decomposition

     bravais-lattice index     =           14
     lattice parameter (alat)  =       9.6476  a.u.
     unit-cell volume          =    3998.9451 (a.u.)^3
     number of atoms/cell      =           19
     number of atomic types    =            3
     number of electrons       =       320.00
     number of Kohn-Sham states=          192
     kinetic-energy cutoff     =      80.0000  Ry
     charge density cutoff     =     320.0000  Ry
     scf convergence threshold =      1.0E-06
     mixing beta               =       0.7000
     number of iterations used =            8  plain     mixing
     Exchange-correlation= SLA PW PBX PBC
                           (   1   4   3   4   0   0   0)

     celldm(1)=   9.647638  celldm(2)=   1.000000  celldm(3)=   5.142234
     celldm(4)=   0.000000  celldm(5)=   0.000000  celldm(6)=   0.500000

     crystal axes: (cart. coord. in units of alat)
               a(1) = (   1.000000   0.000000   0.000000 )
               a(2) = (   0.500000   0.866025   0.000000 )
               a(3) = (   0.000000   0.000000   5.142234 )

     reciprocal axes: (cart. coord. in units 2 pi/alat)
               b(1) = (  1.000000 -0.577350  0.000000 )
               b(2) = (  0.000000  1.154701  0.000000 )
               b(3) = (  0.000000  0.000000  0.194468 )

     PseudoPot. # 1 for Cu read from file:
     /mnt/ceph/glen3534/Prep/Adsorption/CO2Cu/CO2Cu.save/Cu.upf
     MD5 check sum: 69e544ce53ba1f79758756dbb2f8fbdd
     Pseudo is Projector augmented-wave + core cor, Zval = 19.0
     Generated using ATOMPAW code
     Shape of augmentation charge: SINC**2
     Using radial grid of 2342 points,  6 beta functions with:
                l(1) =   0
                l(2) =   0
                l(3) =   1
                l(4) =   1
                l(5) =   2
                l(6) =   2
     Q(r) pseudized with 0 coefficients

     PseudoPot. # 2 for C  read from file:
     /mnt/ceph/glen3534/Prep/Adsorption/CO2Cu/CO2Cu.save/C.upf
     MD5 check sum: 97f42ffd943b0217b1b3b9cef70c8633
     Pseudo is Projector augmented-wave + core cor, Zval =  4.0
     Generated using ATOMPAW code
     Shape of augmentation charge: SINC**2
     Using radial grid of 2342 points,  4 beta functions with:
                l(1) =   0
                l(2) =   0
                l(3) =   1
                l(4) =   1
     Q(r) pseudized with 0 coefficients

     PseudoPot. # 3 for O  read from file:
     /mnt/ceph/glen3534/Prep/Adsorption/CO2Cu/CO2Cu.save/O.upf
     MD5 check sum: 45fbb1c0d1f8837f1e386a2947d3aa26
     Pseudo is Projector augmented-wave + core cor, Zval =  6.0
     Generated using ATOMPAW code
     Shape of augmentation charge: SINC**2
     Using radial grid of 2342 points,  4 beta functions with:
                l(1) =   0
                l(2) =   0
                l(3) =   1
                l(4) =   1
     Q(r) pseudized with 0 coefficients

     atomic species   valence    mass     pseudopotential
        Cu            19.00    63.54600     Cu( 1.00)
        C              4.00    12.01100     C ( 1.00)
        O              6.00    15.99900     O ( 1.00)

      2 Sym. Ops. (no inversion) found ( 1 have fractional translation)

                                    s                        frac. trans.

      isym =  1     identity

 cryst.   s( 1) = (     1          0          0      )
                  (     0          1          0      )
                  (     0          0          1      )

 cart.    s( 1) = (  1.0000000  0.0000000  0.0000000 )
                  (  0.0000000  1.0000000  0.0000000 )
                  (  0.0000000  0.0000000  1.0000000 )

      isym =  2     inv. 180 deg rotation - cart. axis [1,0,0]

 cryst.   s( 2) = (    -1          0          0      )    f =(  0.4999999 )
                  (    -1          1          0      )       (  0.0000000 )
                  (     0          0          1      )       (  0.0000000 )

 cart.    s( 2) = ( -1.0000000  0.0000000  0.0000000 )    f =(  0.4999999 )
                  (  0.0000000  1.0000000  0.0000000 )       (  0.0000000 )
                  (  0.0000000  0.0000000  1.0000000 )       (  0.0000000 )

     point group C_s (m)
     there are  2 classes
     the character table:

       E     s
A'     1.00  1.00
A''    1.00 -1.00

     the symmetry operations in each class and the name of the first element:

     E        1
          identity
     s        2
          inv. 180 deg rotation - cart. axis [1,0,0]

   Cartesian axes

     site n.     atom                  positions (alat units)
         1           Cu  tau(   1) = (   0.0000000   0.0000000   0.0000000  )
         2           Cu  tau(   2) = (   0.5000001   0.0000000   0.0000000  )
         3           Cu  tau(   3) = (   0.2500000   0.4330128   0.0000000  )
         4           Cu  tau(   4) = (   0.7500001   0.4330128   0.0000000  )
         5           Cu  tau(   5) = (   0.2500000   0.1443376   0.4082484  )
         6           Cu  tau(   6) = (   0.7500001   0.1443376   0.4082484  )
         7           Cu  tau(   7) = (   0.5000001   0.5773504   0.4082484  )
         8           Cu  tau(   8) = (   1.0000002   0.5773504   0.4082484  )
         9           Cu  tau(   9) = (  -0.0004114   0.2885913   0.8066489  )
        10           Cu  tau(  10) = (   0.5004115   0.2885913   0.8066489  )
        11           Cu  tau(  11) = (   0.2500000   0.7220429   0.8056878  )
        12           Cu  tau(  12) = (   0.7500001   0.7215885   0.8065726  )
        13           Cu  tau(  13) = (  -0.0000102  -0.0001415   1.2116460  )
        14           Cu  tau(  14) = (   0.5000103  -0.0001415   1.2116460  )
        15           Cu  tau(  15) = (   0.2500000   0.4336418   1.2090998  )
        16           Cu  tau(  16) = (   0.7500001   0.4338259   1.2139466  )
        17           O   tau(  17) = (   0.0207855   0.1438789   1.8166293  )
        18           C   tau(  18) = (   0.2500000   0.1439774   1.8154406  )
        19           O   tau(  19) = (   0.4792146   0.1438789   1.8166293  )

   Crystallographic axes

     site n.     atom                  positions (cryst. coord.)
         1           Cu  tau(   1) = (  0.0000000  0.0000000  0.0000000  )
         2           Cu  tau(   2) = (  0.5000001  0.0000000  0.0000000  )
         3           Cu  tau(   3) = ( -0.0000000  0.5000001  0.0000000  )
         4           Cu  tau(   4) = (  0.5000001  0.5000001  0.0000000  )
         5           Cu  tau(   5) = (  0.1666667  0.1666667  0.0793912  )
         6           Cu  tau(   6) = (  0.6666668  0.1666667  0.0793912  )
         7           Cu  tau(   7) = (  0.1666667  0.6666668  0.0793912  )
         8           Cu  tau(   8) = (  0.6666668  0.6666668  0.0793912  )
         9           Cu  tau(   9) = ( -0.1670297  0.3332365  0.1568674  )
        10           Cu  tau(  10) = (  0.3337932  0.3332365  0.1568674  )
        11           Cu  tau(  11) = ( -0.1668716  0.8337433  0.1566805  )
        12           Cu  tau(  12) = (  0.3333908  0.8332187  0.1568526  )
        13           Cu  tau(  13) = (  0.0000715 -0.0001633  0.2356264  )
        14           Cu  tau(  14) = (  0.5000919 -0.0001633  0.2356264  )
        15           Cu  tau(  15) = ( -0.0003632  0.5007265  0.2351312  )
        16           Cu  tau(  16) = (  0.4995306  0.5009390  0.2360738  )
        17           O   tau(  17) = ( -0.0622830  0.1661371  0.3532763  )
        18           C   tau(  18) = (  0.1668747  0.1662508  0.3530451  )
        19           O   tau(  19) = (  0.3961460  0.1661371  0.3532763  )

     number of k points=     7  Gaussian smearing, width (Ry)=  0.0100
                       cart. coord. in units 2pi/alat
        k(    1) = (   0.0000000   0.0000000   0.0000000), wk =   0.1250000
        k(    2) = (   0.0000000   0.2886751   0.0000000), wk =   0.2500000
        k(    3) = (   0.0000000  -0.5773503   0.0000000), wk =   0.1250000
        k(    4) = (   0.2500000  -0.7216878   0.0000000), wk =   0.5000000
        k(    5) = (  -0.2500000   0.1443376   0.0000000), wk =   0.5000000
        k(    6) = (   0.5000000  -0.2886751   0.0000000), wk =   0.2500000
        k(    7) = (  -0.5000000  -0.5773503   0.0000000), wk =   0.2500000

                       cryst. coord.
        k(    1) = (   0.0000000   0.0000000   0.0000000), wk =   0.1250000
        k(    2) = (   0.0000000   0.2500000   0.0000000), wk =   0.2500000
        k(    3) = (   0.0000000  -0.5000000   0.0000000), wk =   0.1250000
        k(    4) = (   0.2500000  -0.5000000   0.0000000), wk =   0.5000000
        k(    5) = (  -0.2500000   0.0000000   0.0000000), wk =   0.5000000
        k(    6) = (   0.5000000   0.0000000   0.0000000), wk =   0.2500000
        k(    7) = (  -0.5000000  -0.7500000   0.0000000), wk =   0.2500000

     Check: negative core charge=   -0.000009

     Initial potential from superposition of free atoms

     starting charge     319.9947, renormalised to     320.0000

     negative rho (up, down):  7.113E-03 0.000E+00
     Starting wfcs are  312 randomized atomic wfcs
     Checking if some PAW data can be deallocated...

     Self-consistent Calculation

     iteration #  1     ecut=    80.00 Ry     beta= 0.70
     Davidson diagonalization with overlap

     ethr =  1.00E-02,  avg # of iterations = 10.1

     negative rho (up, down):  1.928E-03 0.000E+00

     total energy              =   -7866.78214044 Ry
     estimated scf accuracy    <      20.19570305 Ry

[...]

     c_bands:  1 eigenvalues not converged
     ethr =  1.40E-06,  avg # of iterations = 12.1

[...]

     c_bands:  1 eigenvalues not converged
     ethr =  1.40E-06,  avg # of iterations =  8.9

[...]

     total energy              =   -7892.05248516 Ry
     estimated scf accuracy    <       0.00000695 Ry

     iteration # 37     ecut=    80.00 Ry     beta= 0.70
     Davidson diagonalization with overlap

     ethr =  1.30E-09,  avg # of iterations =  1.6

     negative rho (up, down):  7.593E-03 0.000E+00

     End of self-consistent calculation

          k = 0.0000 0.0000 0.0000 ( 48435 PWs)   bands (ev):

  -108.9765-108.9676-108.9660-108.9655-108.9597-108.9582-108.9550-108.9526
  -108.7599-108.7523-108.7498-108.7335-108.7313-108.7247-108.7245-108.7231
   -66.3971 -66.3906 -66.3890 -66.3884 -66.3868 -66.3861 -66.3841 -66.3524
   -66.3512 -66.3473 -66.3374 -66.3368 -66.3315 -66.3289 -66.3256 -66.3220
   -66.3216 -66.3092 -66.3064 -66.3064 -66.2982 -66.2980 -66.2882 -66.2881
   -66.2108 -66.2042 -66.2029 -66.1856 -66.1855 -66.1854 -66.1494 -66.1455
   -66.1436 -66.1260 -66.1250 -66.1248 -66.1219 -66.1215 -66.1046 -66.1045
   -66.0710 -66.0632 -66.0602 -66.0393 -66.0383 -66.0305 -66.0304 -66.0289
   -20.8236 -19.7811  -5.7554  -5.3764  -4.4665  -4.2812  -3.9970  -3.7934
    -2.3629  -1.5229  -1.2658  -1.2641  -1.2633  -1.1427  -1.1419  -1.1400
    -0.7654  -0.7208  -0.7154  -0.6901  -0.6562  -0.6536  -0.6526  -0.6120
    -0.6073  -0.6021  -0.5759  -0.2122  -0.2103  -0.2076   0.3639   0.3662
     0.3703   0.5799   0.5810   0.5818   0.5874   0.5994   0.6498   0.6499
     0.6943   0.6948   0.7213   0.7219   0.7228   0.8902   0.8904   0.8926
     0.9005   0.9062   0.9062   0.9431   0.9432   1.2317   1.2343   1.2354
     1.2357   1.2389   1.2395   1.4772   1.4776   1.6161   1.6166   1.7265
     1.7271   1.7275   1.8050   1.8099   1.8155   1.8902   1.8906   2.0013
     2.0045   2.0047   2.0119   2.0128   2.0136   2.0531   2.0536   2.0541
     2.0561   2.0561   2.1312   2.1329   2.1341   2.2397   2.2443   2.2450
     2.2631   2.2637   2.2638   2.4622   3.3643   3.3689   3.3744   3.4577
     4.3836   4.3943   4.3976   4.9387   4.9504   4.9552   5.1640   5.1709
     5.1761   6.8829   7.4486   7.4900   7.6396   7.9612   7.9705   7.9995
     8.0600   8.4595   8.7602   8.8044   8.8884   9.6356   9.7543   9.8448
     9.8521  10.0240  10.9738  11.0377  11.0639  11.5685  12.0621  12.2039

     occupation numbers
     1.0000   1.0000   1.0000   1.0000   1.0000   1.0000   1.0000   1.0000
     1.0000   1.0000   1.0000   1.0000   1.0000   1.0000   1.0000   1.0000
     1.0000   1.0000   1.0000   1.0000   1.0000   1.0000   1.0000   1.0000
     1.0000   1.0000   1.0000   1.0000   1.0000   1.0000   1.0000   1.0000
     1.0000   1.0000   1.0000   1.0000   1.0000   1.0000   1.0000   1.0000
     1.0000   1.0000   1.0000   1.0000   1.0000   1.0000   1.0000   1.0000
     1.0000   1.0000   1.0000   1.0000   1.0000   1.0000   1.0000   1.0000
     1.0000   1.0000   1.0000   1.0000   1.0000   1.0000   1.0000   1.0000
     1.0000   1.0000   1.0000   1.0000   1.0000   1.0000   1.0000   1.0000
     1.0000   1.0000   1.0000   1.0000   1.0000   1.0000   1.0000   1.0000
     1.0000   1.0000   1.0000   1.0000   1.0000   1.0000   1.0000   1.0000
     1.0000   1.0000   1.0000   1.0000   1.0000   1.0000   1.0000   1.0000
     1.0000   1.0000   1.0000   1.0000   1.0000   1.0000   1.0000   1.0000
     1.0000   1.0000   1.0000   1.0000   1.0000   1.0000   1.0000   1.0000
     1.0000   1.0000   1.0000   1.0000   1.0000   1.0000   1.0000   1.0000
     1.0000   1.0000   1.0000   1.0000   1.0000   1.0000   1.0000   1.0000
     1.0000   1.0000   1.0000   1.0000   1.0000   1.0000   1.0000   1.0000
     1.0000   1.0000   1.0000   1.0000   1.0000   1.0000   1.0000   1.0000
     1.0000   1.0000   1.0000   1.0000   1.0000   1.0000   1.0000   1.0000
     1.0000   1.0000   1.0000   1.0000   0.9755   0.9727   0.9689   0.8410
     0.0000   0.0000   0.0000   0.0000   0.0000   0.0000   0.0000   0.0000
     0.0000   0.0000   0.0000   0.0000   0.0000   0.0000   0.0000   0.0000
     0.0000   0.0000   0.0000   0.0000   0.0000   0.0000   0.0000   0.0000
     0.0000   0.0000   0.0000   0.0000   0.0000   0.0000   0.0000   0.0000

[...]

          k =-0.2500 0.1443 0.0000 ( 48310 PWs)   bands (ev):

[...]

          k = 0.5000-0.2887 0.0000 ( 48322 PWs)   bands (ev):

[...]

          k =-0.5000-0.5774 0.0000 ( 48288 PWs)   bands (ev):

  -108.9733-108.9683-108.9676-108.9633-108.9620-108.9586-108.9549-108.9533
  -108.7582-108.7521-108.7514-108.7316-108.7299-108.7268-108.7261-108.7229
   -66.3889 -66.3821 -66.3811 -66.3754 -66.3742 -66.3639 -66.3637 -66.3551
   -66.3454 -66.3443 -66.3439 -66.3427 -66.3319 -66.3298 -66.3287 -66.3261
   -66.3228 -66.3195 -66.3186 -66.3162 -66.3087 -66.3066 -66.3046 -66.2972
   -66.1943 -66.1834 -66.1801 -66.1715 -66.1703 -66.1615 -66.1612 -66.1568
   -66.1501 -66.1469 -66.1393 -66.1355 -66.1298 -66.1244 -66.1241 -66.1141
   -66.0699 -66.0622 -66.0619 -66.0395 -66.0351 -66.0324 -66.0316 -66.0288
   -20.7929 -19.8216  -5.0095  -4.6733  -4.3618  -4.2734  -3.9269  -2.7034
    -2.3273  -2.3245  -1.4669  -1.4643  -1.2580  -0.8768  -0.7954  -0.6983
    -0.6895  -0.6520  -0.5922  -0.5713  -0.3493  -0.3481  -0.3324  -0.2476
    -0.1147  -0.0714  -0.0699  -0.0564   0.0278   0.0296   0.0999   0.1115
     0.1751   0.1839   0.1843   0.2661   0.4114   0.4143   0.4233   0.4525
     0.5719   0.6144   0.6435   0.6516   0.6548   0.7213   0.7249   0.8030
     0.8049   0.8094   0.8241   0.8720   0.9046   0.9099   0.9725   0.9976
     1.0345   1.0371   1.0453   1.1144   1.2155   1.2285   1.2891   1.2920
     1.2966   1.3002   1.4190   1.4234   1.4319   1.5230   1.5266   1.5743
     1.5767   1.6177   1.6602   1.7071   1.7098   1.7702   1.7931   1.8448
     1.9093   1.9108   1.9133   1.9177   1.9561   1.9917   1.9978   2.0446
     2.0473   2.0553   2.1825   2.1839   2.3078   2.3118   2.4556   3.4395
     3.4614   4.1714   5.7150   5.7515   5.8789   5.9619   6.2498   6.8534
     7.4268   7.9322   7.9802   8.0527   8.2636   8.5298   8.8458   8.8919
     9.4150   9.5663   9.7521   9.9321  10.3971  10.5076  10.6699  10.6902
    10.7484  11.0596  11.2457  11.2808  11.4029  11.5368  11.5951  11.6704

     occupation numbers
     1.0000   1.0000   1.0000   1.0000   1.0000   1.0000   1.0000   1.0000
     1.0000   1.0000   1.0000   1.0000   1.0000   1.0000   1.0000   1.0000
     1.0000   1.0000   1.0000   1.0000   1.0000   1.0000   1.0000   1.0000
     1.0000   1.0000   1.0000   1.0000   1.0000   1.0000   1.0000   1.0000
     1.0000   1.0000   1.0000   1.0000   1.0000   1.0000   1.0000   1.0000
     1.0000   1.0000   1.0000   1.0000   1.0000   1.0000   1.0000   1.0000
     1.0000   1.0000   1.0000   1.0000   1.0000   1.0000   1.0000   1.0000
     1.0000   1.0000   1.0000   1.0000   1.0000   1.0000   1.0000   1.0000
     1.0000   1.0000   1.0000   1.0000   1.0000   1.0000   1.0000   1.0000
     1.0000   1.0000   1.0000   1.0000   1.0000   1.0000   1.0000   1.0000
     1.0000   1.0000   1.0000   1.0000   1.0000   1.0000   1.0000   1.0000
     1.0000   1.0000   1.0000   1.0000   1.0000   1.0000   1.0000   1.0000
     1.0000   1.0000   1.0000   1.0000   1.0000   1.0000   1.0000   1.0000
     1.0000   1.0000   1.0000   1.0000   1.0000   1.0000   1.0000   1.0000
     1.0000   1.0000   1.0000   1.0000   1.0000   1.0000   1.0000   1.0000
     1.0000   1.0000   1.0000   1.0000   1.0000   1.0000   1.0000   1.0000
     1.0000   1.0000   1.0000   1.0000   1.0000   1.0000   1.0000   1.0000
     1.0000   1.0000   1.0000   1.0000   1.0000   1.0000   1.0000   1.0000
     1.0000   1.0000   1.0000   1.0000   1.0000   1.0000   1.0000   1.0000
     1.0000   1.0000   1.0000   1.0000   1.0000   1.0000   1.0000   0.8825
     0.8314   0.0000   0.0000   0.0000   0.0000   0.0000   0.0000   0.0000
     0.0000   0.0000   0.0000   0.0000   0.0000   0.0000   0.0000   0.0000
     0.0000   0.0000   0.0000   0.0000   0.0000   0.0000   0.0000   0.0000
     0.0000   0.0000   0.0000   0.0000   0.0000   0.0000   0.0000   0.0000

     the Fermi energy is     3.5538 ev

!    total energy              =   -7892.05248535 Ry

     total all-electron energy =     -7892.052485 Ry
     estimated scf accuracy    <       0.00000037 Ry
     smearing contrib. (-TS)   =      -0.00756191 Ry
     internal energy E=F+TS    =   -7892.04492344 Ry

     The total energy is F=E-TS. E is the sum of the following terms:
     one-electron contribution =  -61290.01983275 Ry
     hartree contribution      =   29791.57360295 Ry
     xc contribution           =    -524.01102726 Ry
     ewald contribution        =   24873.15666724 Ry
     Dispersion Correction     =      -0.37404594 Ry
     one-center paw contrib.   =    -742.37028769 Ry
      -> PAW hartree energy AE =     328.84641064 Ry
      -> PAW hartree energy PS =    -270.04645726 Ry
      -> PAW xc energy AE      =    -134.20671194 Ry
      -> PAW xc energy PS      =      30.65291374 Ry
      -> total E_H with PAW    =   29850.37355633 Ry
      -> total E_XC with PAW   =    -627.56482546 Ry

     convergence has been achieved in  37 iterations

     Writing all to output data dir ./CO2Cufcc.save/

     General routines

     Parallel routines

     PAW routines

   This run was terminated on:   9:57:14   8Jul2022

   JOB DONE.