     Program PHONON v.7.0 starts on 15Jul2022 at 16:23:45

     R & G space division:  proc/nbgrp/npool/nimage =      64

     Waiting for input...
     Reading input from standard input
      Title line not specified: using 'default'.

     Reading xml data from directory:

     ./CO2Cubridge.save/
     Message from routine read_pp_mesh:
     mismatch in mesh size, discarding the one in header
     Message from routine read_pp_mesh:
     mismatch in mesh size, discarding the one in header
     Message from routine read_pp_mesh:
     mismatch in mesh size, discarding the one in header

     IMPORTANT: XC functional enforced from input :
     Exchange-correlation= PBE
                           (   1   4   3   4   0   0   0)
     Any further DFT definition will be discarded
     Please, verify this is what you really want

     Using Slab Decomposition

     Check: negative core charge=   -0.000009

     negative rho (up, down):  7.604E-03 0.000E+00
     Reading collected, re-writing distributed wavefunctions

     Dynamical matrices for ( 1, 1, 1)  uniform grid of q-points
     (   1 q-points):
       N         xq(1)         xq(2)         xq(3)
       1   0.000000000   0.000000000   0.000000000

     Calculation of q =    0.0000000   0.0000000   0.0000000

     default

     bravais-lattice index     =           14
     lattice parameter (alat)  =       9.6476  a.u.
     unit-cell volume          =    3998.9451 (a.u.)^3
     number of atoms/cell      =           19
     number of atomic types    =            3
     kinetic-energy cut-off    =      80.0000  Ry
     charge density cut-off    =     320.0000  Ry
     convergence threshold     =      1.0E-12
     beta                      =       0.3000
     number of iterations used =            4
     Exchange-correlation= PBE
                           (   1   4   3   4   0   0   0)

     celldm(1)=    9.64764  celldm(2)=    1.00000  celldm(3)=    5.14223
     celldm(4)=    0.00000  celldm(5)=    0.00000  celldm(6)=    0.50000

     crystal axes: (cart. coord. in units of alat)
               a(1) = (  1.0000  0.0000  0.0000 )
               a(2) = (  0.5000  0.8660  0.0000 )
               a(3) = (  0.0000  0.0000  5.1422 )

     reciprocal axes: (cart. coord. in units 2 pi/alat)
               b(1) = (  1.0000 -0.5774  0.0000 )
               b(2) = (  0.0000  1.1547  0.0000 )
               b(3) = (  0.0000  0.0000  0.1945 )

     Atoms inside the unit cell:

     Cartesian axes

     site n.  atom      mass           positions (alat units)
        1     Cu  63.5460   tau(    1) = (    0.00000    0.00000    0.00000  )
        2     Cu  63.5460   tau(    2) = (    0.50000    0.00000    0.00000  )
        3     Cu  63.5460   tau(    3) = (    0.25000    0.43301    0.00000  )
        4     Cu  63.5460   tau(    4) = (    0.75000    0.43301    0.00000  )
        5     Cu  63.5460   tau(    5) = (    0.25000    0.14434    0.40825  )
        6     Cu  63.5460   tau(    6) = (    0.75000    0.14434    0.40825  )
        7     Cu  63.5460   tau(    7) = (    0.50000    0.57735    0.40825  )
        8     Cu  63.5460   tau(    8) = (    1.00000    0.57735    0.40825  )
        9     Cu  63.5460   tau(    9) = (   -0.00012    0.28877    0.80725  )
       10     Cu  63.5460   tau(   10) = (    0.50012    0.28877    0.80725  )
       11     Cu  63.5460   tau(   11) = (    0.25000    0.72147    0.80689  )
       12     Cu  63.5460   tau(   12) = (    0.75000    0.72151    0.80670  )
       13     Cu  63.5460   tau(   13) = (   -0.00013    0.00004    1.21074  )
       14     Cu  63.5460   tau(   14) = (    0.50013    0.00004    1.21074  )
       15     Cu  63.5460   tau(   15) = (    0.25000    0.43249    1.21269  )
       16     Cu  63.5460   tau(   16) = (    0.75000    0.43362    1.21250  )
       17     O   15.9990   tau(   17) = (    0.02077   -0.00002    1.81770  )
       18     C   12.0110   tau(   18) = (    0.25000   -0.00003    1.81649  )
       19     O   15.9990   tau(   19) = (    0.47924   -0.00002    1.81770  )

     Computing dynamical matrix for
                    q = (   0.0000000   0.0000000   0.0000000 )

      3 Sym.Ops. (with q -> -q+G )

     G cutoff =  754.4530  (   6042 G-vectors)     FFT grid: ( 60, 60,288)

     number of k points=     7  Gaussian smearing, width (Ry)=  0.0100

     PseudoPot. # 1 for Cu read from file:
     /mnt/ceph/glen3534/Prep/Adsorption/CO2Cu/CO2Cu.save/Cu.upf
     MD5 check sum: 69e544ce53ba1f79758756dbb2f8fbdd
     Pseudo is Projector augmented-wave + core cor, Zval = 19.0
     Generated using ATOMPAW code
     Shape of augmentation charge: SINC**2
     Using radial grid of 2342 points,  6 beta functions with:
                l(1) =   0
                l(2) =   0
                l(3) =   1
                l(4) =   1
                l(5) =   2
                l(6) =   2
     Q(r) pseudized with 0 coefficients

     PseudoPot. # 2 for C  read from file:
     /mnt/ceph/glen3534/Prep/Adsorption/CO2Cu/CO2Cu.save/C.upf
     MD5 check sum: 97f42ffd943b0217b1b3b9cef70c8633
     Pseudo is Projector augmented-wave + core cor, Zval =  4.0
     Generated using ATOMPAW code
     Shape of augmentation charge: SINC**2
     Using radial grid of 2342 points,  4 beta functions with:
                l(1) =   0
                l(2) =   0
                l(3) =   1
                l(4) =   1
     Q(r) pseudized with 0 coefficients

     PseudoPot. # 3 for O  read from file:
     /mnt/ceph/glen3534/Prep/Adsorption/CO2Cu/CO2Cu.save/O.upf
     MD5 check sum: 45fbb1c0d1f8837f1e386a2947d3aa26
     Pseudo is Projector augmented-wave + core cor, Zval =  6.0
     Generated using ATOMPAW code
     Shape of augmentation charge: SINC**2
     Using radial grid of 2342 points,  4 beta functions with:
                l(1) =   0
                l(2) =   0
                l(3) =   1
                l(4) =   1
     Q(r) pseudized with 0 coefficients

     Mode symmetry, C_s (m)     point group:

     Atomic displacements:
     There are   57 irreducible representations

     Representation     1      1 modes -  To be done

[...]

     Representation    57      1 modes -  To be done

     Alpha used in Ewald sum =   2.6000

     Parameters for Dispersion (Grimme-D2) Correction:
       atom      VdW radius       C_6

        Cu         2.952        374.666
        C          2.744         60.710
        O          2.536         24.284

     Calculating the D2 contribution to the dynamical matrix.
     D2 energy =       -0.37360229 Ry
     Done.

     negative rho (up, down):  7.604E-03 0.000E+00

     Representation #   1 mode #   1

     Self-consistent Calculation

     Pert. #  1: Fermi energy shift (Ry) =     2.8367E-02     2.1176E-22

      thresh= 1.000E-02 alpha_mix =  0.300 |ddv_scf|^2 =  6.774E-07

[...]

     End of self-consistent calculation

     Convergence has been achieved

[...]

     Representation #  57 mode #  57

     Self-consistent Calculation

[...]

     Pert. #  1: Fermi energy shift (Ry) =     0.0000E+00     0.0000E+00

      thresh= 1.054E-07 alpha_mix =  0.100 |ddv_scf|^2 =  3.161E-13

     End of self-consistent calculation

     Convergence has been achieved

     Number of q in the star =    1
     List of q in the star:
          1   0.000000000   0.000000000   0.000000000

     Diagonalizing the dynamical matrix

     q = (    0.000000000   0.000000000   0.000000000 )

     freq (    1) =      -9.100491 [THz] =    -303.559705 [cm-1]
     freq (    2) =      -8.730410 [THz] =    -291.215116 [cm-1]
     freq (    3) =      -8.324095 [THz] =    -277.661928 [cm-1]
     freq (    4) =      -7.883344 [THz] =    -262.960039 [cm-1]
     freq (    5) =      -7.784135 [THz] =    -259.650780 [cm-1]
     freq (    6) =      -6.976805 [THz] =    -232.721148 [cm-1]
     freq (    7) =      -6.237745 [THz] =    -208.068773 [cm-1]
     freq (    8) =      -6.010429 [THz] =    -200.486316 [cm-1]
     freq (    9) =      -5.831709 [THz] =    -194.524863 [cm-1]
     freq (   10) =      -5.372933 [THz] =    -179.221749 [cm-1]
     freq (   11) =      -5.165212 [THz] =    -172.292926 [cm-1]
     freq (   12) =      -4.550422 [THz] =    -151.785728 [cm-1]
     freq (   13) =      -4.361783 [THz] =    -145.493408 [cm-1]
     freq (   14) =      -4.163161 [THz] =    -138.868112 [cm-1]
     freq (   15) =      -3.607596 [THz] =    -120.336434 [cm-1]
     freq (   16) =      -3.456627 [THz] =    -115.300664 [cm-1]
     freq (   17) =      -3.185827 [THz] =    -106.267758 [cm-1]
     freq (   18) =      -2.644750 [THz] =     -88.219381 [cm-1]
     freq (   19) =      -1.902143 [THz] =     -63.448663 [cm-1]
     freq (   20) =       1.610914 [THz] =      53.734299 [cm-1]
     freq (   21) =       2.069750 [THz] =      69.039440 [cm-1]
     freq (   22) =       2.478789 [THz] =      82.683492 [cm-1]
     freq (   23) =       2.681993 [THz] =      89.461664 [cm-1]
     freq (   24) =       3.824247 [THz] =     127.563155 [cm-1]
     freq (   25) =       4.086089 [THz] =     136.297275 [cm-1]
     freq (   26) =       4.415710 [THz] =     147.292231 [cm-1]
     freq (   27) =       4.869234 [THz] =     162.420169 [cm-1]
     freq (   28) =       5.065771 [THz] =     168.975948 [cm-1]
     freq (   29) =       5.083127 [THz] =     169.554870 [cm-1]
     freq (   30) =       5.308982 [THz] =     177.088593 [cm-1]
     freq (   31) =       5.536284 [THz] =     184.670552 [cm-1]
     freq (   32) =       5.544182 [THz] =     184.933990 [cm-1]
     freq (   33) =       5.659732 [THz] =     188.788332 [cm-1]
     freq (   34) =       5.695223 [THz] =     189.972187 [cm-1]
     freq (   35) =       5.734629 [THz] =     191.286627 [cm-1]
     freq (   36) =       5.868240 [THz] =     195.743418 [cm-1]
     freq (   37) =       6.387730 [THz] =     213.071735 [cm-1]
     freq (   38) =       6.641782 [THz] =     221.546005 [cm-1]
     freq (   39) =       6.956308 [THz] =     232.037446 [cm-1]
     freq (   40) =       7.048705 [THz] =     235.119497 [cm-1]
     freq (   41) =       7.235858 [THz] =     241.362236 [cm-1]
     freq (   42) =       7.559422 [THz] =     252.155179 [cm-1]
     freq (   43) =       7.640118 [THz] =     254.846903 [cm-1]
     freq (   44) =       7.665675 [THz] =     255.699410 [cm-1]
     freq (   45) =       7.834286 [THz] =     261.323666 [cm-1]
     freq (   46) =       8.294831 [THz] =     276.685783 [cm-1]
     freq (   47) =       8.575852 [THz] =     286.059633 [cm-1]
     freq (   48) =       8.856719 [THz] =     295.428343 [cm-1]
     freq (   49) =       9.088003 [THz] =     303.143160 [cm-1]
     freq (   50) =       9.255456 [THz] =     308.728789 [cm-1]
     freq (   51) =       9.684923 [THz] =     323.054253 [cm-1]
     freq (   52) =       9.827033 [THz] =     327.794542 [cm-1]
     freq (   53) =      10.168355 [THz] =     339.179802 [cm-1]
     freq (   54) =      18.157446 [THz] =     605.667218 [cm-1]
     freq (   55) =      18.588265 [THz] =     620.037788 [cm-1]
     freq (   56) =      39.977950 [THz] =    1333.520887 [cm-1]
     freq (   57) =      70.310404 [THz] =    2345.302622 [cm-1]

     Mode symmetry, C_s (m)     point group:

     freq (   1-   1) =       -303.6  [cm-1]   --> A''             I+R
     freq (   2-   2) =       -291.2  [cm-1]   --> A''             I+R
     freq (   3-   3) =       -277.7  [cm-1]   --> A''             I+R
     freq (   4-   4) =       -263.0  [cm-1]   --> A''             I+R
     freq (   5-   5) =       -259.7  [cm-1]   --> A''             I+R
     freq (   6-   6) =       -232.7  [cm-1]   --> A''             I+R
     freq (   7-   7) =       -208.1  [cm-1]   --> A''             I+R
     freq (   8-   8) =       -200.5  [cm-1]   --> A''             I+R
     freq (   9-   9) =       -194.5  [cm-1]   --> A''             I+R
     freq (  10-  10) =       -179.2  [cm-1]   --> A'              I+R
     freq (  11-  11) =       -172.3  [cm-1]   --> A''             I+R
     freq (  12-  12) =       -151.8  [cm-1]   --> A''             I+R
     freq (  13-  13) =       -145.5  [cm-1]   --> A''             I+R
     freq (  14-  14) =       -138.9  [cm-1]   --> A'              I+R
     freq (  15-  15) =       -120.3  [cm-1]   --> A''             I+R
     freq (  16-  16) =       -115.3  [cm-1]   --> A''             I+R
     freq (  17-  17) =       -106.3  [cm-1]   --> A''             I+R
     freq (  18-  18) =        -88.2  [cm-1]   --> A'              I+R
     freq (  19-  19) =        -63.4  [cm-1]   --> A''             I+R
     freq (  20-  20) =         53.7  [cm-1]   --> A'              I+R
     freq (  21-  21) =         69.0  [cm-1]   --> A''             I+R
     freq (  22-  22) =         82.7  [cm-1]   --> A'              I+R
     freq (  23-  23) =         89.5  [cm-1]   --> A'              I+R
     freq (  24-  24) =        127.6  [cm-1]   --> A'              I+R
     freq (  25-  25) =        136.3  [cm-1]   --> A'              I+R
     freq (  26-  26) =        147.3  [cm-1]   --> A''             I+R
     freq (  27-  27) =        162.4  [cm-1]   --> A'              I+R
     freq (  28-  28) =        169.0  [cm-1]   --> A'              I+R
     freq (  29-  29) =        169.6  [cm-1]   --> A'              I+R
     freq (  30-  30) =        177.1  [cm-1]   --> A'              I+R
     freq (  31-  31) =        184.7  [cm-1]   --> A'              I+R
     freq (  32-  32) =        184.9  [cm-1]   --> A''             I+R
     freq (  33-  33) =        188.8  [cm-1]   --> A'              I+R
     freq (  34-  34) =        190.0  [cm-1]   --> A'              I+R
     freq (  35-  35) =        191.3  [cm-1]   --> A''             I+R
     freq (  36-  36) =        195.7  [cm-1]   --> A'              I+R
     freq (  37-  37) =        213.1  [cm-1]   --> A'              I+R
     freq (  38-  38) =        221.5  [cm-1]   --> A'              I+R
     freq (  39-  39) =        232.0  [cm-1]   --> A'              I+R
     freq (  40-  40) =        235.1  [cm-1]   --> A'              I+R
     freq (  41-  41) =        241.4  [cm-1]   --> A'              I+R
     freq (  42-  42) =        252.2  [cm-1]   --> A'              I+R
     freq (  43-  43) =        254.8  [cm-1]   --> A'              I+R
     freq (  44-  44) =        255.7  [cm-1]   --> A''             I+R
     freq (  45-  45) =        261.3  [cm-1]   --> A'              I+R
     freq (  46-  46) =        276.7  [cm-1]   --> A'              I+R
     freq (  47-  47) =        286.1  [cm-1]   --> A''             I+R
     freq (  48-  48) =        295.4  [cm-1]   --> A'              I+R
     freq (  49-  49) =        303.1  [cm-1]   --> A'              I+R
     freq (  50-  50) =        308.7  [cm-1]   --> A'              I+R
     freq (  51-  51) =        323.1  [cm-1]   --> A'              I+R
     freq (  52-  52) =        327.8  [cm-1]   --> A''             I+R
     freq (  53-  53) =        339.2  [cm-1]   --> A'              I+R
     freq (  54-  54) =        605.7  [cm-1]   --> A'              I+R
     freq (  55-  55) =        620.0  [cm-1]   --> A'              I+R
     freq (  56-  56) =       1333.5  [cm-1]   --> A'              I+R
     freq (  57-  57) =       2345.3  [cm-1]   --> A''             I+R

     INITIALIZATION:

     DYNAMICAL MATRIX:

      General routines

   This run was terminated on:  17:19:12  23Jul2022

   JOB DONE.