     Program PWSCF v.7.0 starts on 11Jul2022 at 12:27:36

     R & G space division:  proc/nbgrp/npool/nimage =      24

     Waiting for input...
     Reading input from standard input

     Current dimensions of program PWSCF are:
     Max number of different atomic species (ntypx) = 10
     Max number of k-points (npk) =  40000
     Max angular momentum in pseudopotentials (lmaxx) =  4
     Message from routine read_pp_mesh:
     mismatch in mesh size, discarding the one in header
     Message from routine read_pp_mesh:
     mismatch in mesh size, discarding the one in header
     Message from routine read_pp_mesh:
     mismatch in mesh size, discarding the one in header

     Parameters for Dispersion (Grimme-D2) Correction:
       atom      VdW radius       C_6

        Cu         2.952        374.666
        C          2.744         60.710
        O          2.536         24.284

     Subspace diagonalization in iterative solution of the eigenvalue problem:
     a serial algorithm will be used

     Using Slab Decomposition

     bravais-lattice index     =           14
     lattice parameter (alat)  =       9.6476  a.u.
     unit-cell volume          =    3998.9451 (a.u.)^3
     number of atoms/cell      =           19
     number of atomic types    =            3
     number of electrons       =       320.00
     number of Kohn-Sham states=          192
     kinetic-energy cutoff     =      80.0000  Ry
     charge density cutoff     =     320.0000  Ry
     scf convergence threshold =      1.0E-06
     mixing beta               =       0.7000
     number of iterations used =            8  plain     mixing
     Exchange-correlation= SLA PW PBX PBC
                           (   1   4   3   4   0   0   0)

     celldm(1)=   9.647638  celldm(2)=   1.000000  celldm(3)=   5.142234
     celldm(4)=   0.000000  celldm(5)=   0.000000  celldm(6)=   0.500000

     crystal axes: (cart. coord. in units of alat)
               a(1) = (   1.000000   0.000000   0.000000 )
               a(2) = (   0.500000   0.866025   0.000000 )
               a(3) = (   0.000000   0.000000   5.142234 )

     reciprocal axes: (cart. coord. in units 2 pi/alat)
               b(1) = (  1.000000 -0.577350  0.000000 )
               b(2) = (  0.000000  1.154701  0.000000 )
               b(3) = (  0.000000  0.000000  0.194468 )

     PseudoPot. # 1 for Cu read from file:
     /mnt/ceph/glen3534/Prep/Adsorption/CO2Cu/CO2Cu.save/Cu.upf
     MD5 check sum: 69e544ce53ba1f79758756dbb2f8fbdd
     Pseudo is Projector augmented-wave + core cor, Zval = 19.0
     Generated using ATOMPAW code
     Shape of augmentation charge: SINC**2
     Using radial grid of 2342 points,  6 beta functions with:
                l(1) =   0
                l(2) =   0
                l(3) =   1
                l(4) =   1
                l(5) =   2
                l(6) =   2
     Q(r) pseudized with 0 coefficients

     PseudoPot. # 2 for C  read from file:
     /mnt/ceph/glen3534/Prep/Adsorption/CO2Cu/CO2Cu.save/C.upf
     MD5 check sum: 97f42ffd943b0217b1b3b9cef70c8633
     Pseudo is Projector augmented-wave + core cor, Zval =  4.0
     Generated using ATOMPAW code
     Shape of augmentation charge: SINC**2
     Using radial grid of 2342 points,  4 beta functions with:
                l(1) =   0
                l(2) =   0
                l(3) =   1
                l(4) =   1
     Q(r) pseudized with 0 coefficients

     PseudoPot. # 3 for O  read from file:
     /mnt/ceph/glen3534/Prep/Adsorption/CO2Cu/CO2Cu.save/O.upf
     MD5 check sum: 45fbb1c0d1f8837f1e386a2947d3aa26
     Pseudo is Projector augmented-wave + core cor, Zval =  6.0
     Generated using ATOMPAW code
     Shape of augmentation charge: SINC**2
     Using radial grid of 2342 points,  4 beta functions with:
                l(1) =   0
                l(2) =   0
                l(3) =   1
                l(4) =   1
     Q(r) pseudized with 0 coefficients

     atomic species   valence    mass     pseudopotential
        Cu            19.00    63.54600     Cu( 1.00)
        C              4.00    12.01100     C ( 1.00)
        O              6.00    15.99900     O ( 1.00)

      2 Sym. Ops. (no inversion) found ( 1 have fractional translation)

                                    s                        frac. trans.

      isym =  1     identity

 cryst.   s( 1) = (     1          0          0      )
                  (     0          1          0      )
                  (     0          0          1      )

 cart.    s( 1) = (  1.0000000  0.0000000  0.0000000 )
                  (  0.0000000  1.0000000  0.0000000 )
                  (  0.0000000  0.0000000  1.0000000 )

      isym =  2     inv. 180 deg rotation - cart. axis [1,0,0]

 cryst.   s( 2) = (    -1          0          0      )    f =(  0.4999999 )
                  (    -1          1          0      )       (  0.0000000 )
                  (     0          0          1      )       (  0.0000000 )

 cart.    s( 2) = ( -1.0000000  0.0000000  0.0000000 )    f =(  0.4999999 )
                  (  0.0000000  1.0000000  0.0000000 )       (  0.0000000 )
                  (  0.0000000  0.0000000  1.0000000 )       (  0.0000000 )

     point group C_s (m)
     there are  2 classes
     the character table:

       E     s
A'     1.00  1.00
A''    1.00 -1.00

     the symmetry operations in each class and the name of the first element:

     E        1
          identity
     s        2
          inv. 180 deg rotation - cart. axis [1,0,0]

   Cartesian axes

     site n.     atom                  positions (alat units)
         1           Cu  tau(   1) = (   0.0000000   0.0000000   0.0000000  )
         2           Cu  tau(   2) = (   0.5000001   0.0000000   0.0000000  )
         3           Cu  tau(   3) = (   0.2500000   0.4330128   0.0000000  )
         4           Cu  tau(   4) = (   0.7500001   0.4330128   0.0000000  )
         5           Cu  tau(   5) = (   0.2500000   0.1443376   0.4082484  )
         6           Cu  tau(   6) = (   0.7500001   0.1443376   0.4082484  )
         7           Cu  tau(   7) = (   0.5000001   0.5773504   0.4082484  )
         8           Cu  tau(   8) = (   1.0000002   0.5773504   0.4082484  )
         9           Cu  tau(   9) = (  -0.0001245   0.2887703   0.8072504  )
        10           Cu  tau(  10) = (   0.5001246   0.2887703   0.8072504  )
        11           Cu  tau(  11) = (   0.2500000   0.7214727   0.8068902  )
        12           Cu  tau(  12) = (   0.7500001   0.7215111   0.8067049  )
        13           Cu  tau(  13) = (  -0.0001312   0.0000359   1.2107374  )
        14           Cu  tau(  14) = (   0.5001313   0.0000359   1.2107374  )
        15           Cu  tau(  15) = (   0.2500000   0.4324899   1.2126868  )
        16           Cu  tau(  16) = (   0.7500001   0.4336186   1.2125029  )
        17           O   tau(  17) = (   0.0207650  -0.0000211   1.8176954  )
        18           C   tau(  18) = (   0.2500000  -0.0000307   1.8164876  )
        19           O   tau(  19) = (   0.4792351  -0.0000211   1.8176954  )

   Crystallographic axes

     site n.     atom                  positions (cryst. coord.)
         1           Cu  tau(   1) = (  0.0000000  0.0000000  0.0000000  )
         2           Cu  tau(   2) = (  0.5000001  0.0000000  0.0000000  )
         3           Cu  tau(   3) = ( -0.0000000  0.5000001  0.0000000  )
         4           Cu  tau(   4) = (  0.5000001  0.5000001  0.0000000  )
         5           Cu  tau(   5) = (  0.1666667  0.1666667  0.0793912  )
         6           Cu  tau(   6) = (  0.6666668  0.1666667  0.0793912  )
         7           Cu  tau(   7) = (  0.1666667  0.6666668  0.0793912  )
         8           Cu  tau(   8) = (  0.6666668  0.6666668  0.0793912  )
         9           Cu  tau(   9) = ( -0.1668461  0.3334433  0.1569844  )
        10           Cu  tau(  10) = (  0.3334030  0.3334433  0.1569844  )
        11           Cu  tau(  11) = ( -0.1665424  0.8330849  0.1569143  )
        12           Cu  tau(  12) = (  0.3334355  0.8331292  0.1568783  )
        13           Cu  tau(  13) = ( -0.0001519  0.0000414  0.2354497  )
        14           Cu  tau(  14) = (  0.5001106  0.0000414  0.2354497  )
        15           Cu  tau(  15) = (  0.0003019  0.4993963  0.2358288  )
        16           Cu  tau(  16) = (  0.4996504  0.5006996  0.2357930  )
        17           O   tau(  17) = (  0.0207772 -0.0000243  0.3534836  )
        18           C   tau(  18) = (  0.2500178 -0.0000355  0.3532487  )
        19           O   tau(  19) = (  0.4792472 -0.0000243  0.3534836  )

     number of k points=     7  Gaussian smearing, width (Ry)=  0.0100
                       cart. coord. in units 2pi/alat
        k(    1) = (   0.0000000   0.0000000   0.0000000), wk =   0.1250000
        k(    2) = (   0.0000000   0.2886751   0.0000000), wk =   0.2500000
        k(    3) = (   0.0000000  -0.5773503   0.0000000), wk =   0.1250000
        k(    4) = (   0.2500000  -0.7216878   0.0000000), wk =   0.5000000
        k(    5) = (  -0.2500000   0.1443376   0.0000000), wk =   0.5000000
        k(    6) = (   0.5000000  -0.2886751   0.0000000), wk =   0.2500000
        k(    7) = (  -0.5000000  -0.5773503   0.0000000), wk =   0.2500000

                       cryst. coord.
        k(    1) = (   0.0000000   0.0000000   0.0000000), wk =   0.1250000
        k(    2) = (   0.0000000   0.2500000   0.0000000), wk =   0.2500000
        k(    3) = (   0.0000000  -0.5000000   0.0000000), wk =   0.1250000
        k(    4) = (   0.2500000  -0.5000000   0.0000000), wk =   0.5000000
        k(    5) = (  -0.2500000   0.0000000   0.0000000), wk =   0.5000000
        k(    6) = (   0.5000000   0.0000000   0.0000000), wk =   0.2500000
        k(    7) = (  -0.5000000  -0.7500000   0.0000000), wk =   0.2500000

     Check: negative core charge=   -0.000009

     Initial potential from superposition of free atoms

     starting charge     319.9947, renormalised to     320.0000

     negative rho (up, down):  7.129E-03 0.000E+00
     Starting wfcs are  312 randomized atomic wfcs
     Checking if some PAW data can be deallocated...

     Self-consistent Calculation

     iteration #  1     ecut=    80.00 Ry     beta= 0.70
     Davidson diagonalization with overlap

     ethr =  1.00E-02,  avg # of iterations = 10.3

     negative rho (up, down):  1.967E-03 0.000E+00

     total energy              =   -7866.72020354 Ry
     estimated scf accuracy    <      20.24013809 Ry

[...]

     c_bands:  1 eigenvalues not converged
     ethr =  7.60E-05,  avg # of iterations =  8.3

[...]

     c_bands:  1 eigenvalues not converged
     ethr =  1.26E-06,  avg # of iterations = 11.3

[...]

     total energy              =   -7892.05275229 Ry
     estimated scf accuracy    <       0.00000270 Ry

     iteration # 37     ecut=    80.00 Ry     beta= 0.70
     Davidson diagonalization with overlap

     ethr =  4.64E-10,  avg # of iterations =  1.0

     negative rho (up, down):  7.604E-03 0.000E+00

     End of self-consistent calculation

          k = 0.0000 0.0000 0.0000 ( 48435 PWs)   bands (ev):

  -108.9704-108.9614-108.9590-108.9580-108.9536-108.9528-108.9517-108.9476
  -108.7583-108.7525-108.7375-108.7329-108.7294-108.7208-108.7196-108.7193
   -66.3906 -66.3832 -66.3830 -66.3825 -66.3808 -66.3798 -66.3790 -66.3464
   -66.3443 -66.3428 -66.3309 -66.3306 -66.3263 -66.3245 -66.3190 -66.3169
   -66.3158 -66.3027 -66.3004 -66.3000 -66.2934 -66.2932 -66.2823 -66.2823
   -66.2079 -66.2028 -66.1981 -66.1818 -66.1817 -66.1806 -66.1461 -66.1446
   -66.1370 -66.1214 -66.1211 -66.1209 -66.1203 -66.1174 -66.1005 -66.1004
   -66.0686 -66.0638 -66.0473 -66.0422 -66.0341 -66.0267 -66.0253 -66.0249
   -20.8340 -19.7919  -5.7659  -5.3691  -4.4784  -4.2866  -3.9972  -3.8042
    -2.3580  -1.5175  -1.2593  -1.2568  -1.2565  -1.1354  -1.1334  -1.1328
    -0.7705  -0.7120  -0.7112  -0.6830  -0.6627  -0.6546  -0.6508  -0.6167
    -0.6018  -0.5998  -0.5748  -0.2092  -0.2075  -0.2061   0.3679   0.3711
     0.3739   0.5850   0.5854   0.5855   0.5938   0.6024   0.6563   0.6564
     0.7016   0.7019   0.7270   0.7300   0.7304   0.8935   0.8935   0.8990
     0.9081   0.9112   0.9112   0.9469   0.9469   1.2340   1.2374   1.2377
     1.2418   1.2449   1.2464   1.4831   1.4833   1.6199   1.6201   1.7310
     1.7325   1.7336   1.8113   1.8130   1.8175   1.8951   1.8952   2.0075
     2.0087   2.0091   2.0154   2.0196   2.0208   2.0585   2.0585   2.0601
     2.0616   2.0620   2.1364   2.1382   2.1386   2.2427   2.2468   2.2504
     2.2672   2.2678   2.2681   2.4665   3.3657   3.3742   3.3776   3.4629
     4.3860   4.3965   4.3994   4.9428   4.9548   4.9580   5.1692   5.1760
     5.1767   6.8818   7.4583   7.4861   7.6870   7.9632   7.9806   7.9976
     8.0397   8.4456   8.7657   8.8309   8.8448   9.5898   9.7728   9.8298
     9.8679  10.0423  10.9502  11.0378  11.0779  11.5743  12.1699  12.2491

     occupation numbers
     1.0000   1.0000   1.0000   1.0000   1.0000   1.0000   1.0000   1.0000
     1.0000   1.0000   1.0000   1.0000   1.0000   1.0000   1.0000   1.0000
     1.0000   1.0000   1.0000   1.0000   1.0000   1.0000   1.0000   1.0000
     1.0000   1.0000   1.0000   1.0000   1.0000   1.0000   1.0000   1.0000
     1.0000   1.0000   1.0000   1.0000   1.0000   1.0000   1.0000   1.0000
     1.0000   1.0000   1.0000   1.0000   1.0000   1.0000   1.0000   1.0000
     1.0000   1.0000   1.0000   1.0000   1.0000   1.0000   1.0000   1.0000
     1.0000   1.0000   1.0000   1.0000   1.0000   1.0000   1.0000   1.0000
     1.0000   1.0000   1.0000   1.0000   1.0000   1.0000   1.0000   1.0000
     1.0000   1.0000   1.0000   1.0000   1.0000   1.0000   1.0000   1.0000
     1.0000   1.0000   1.0000   1.0000   1.0000   1.0000   1.0000   1.0000
     1.0000   1.0000   1.0000   1.0000   1.0000   1.0000   1.0000   1.0000
     1.0000   1.0000   1.0000   1.0000   1.0000   1.0000   1.0000   1.0000
     1.0000   1.0000   1.0000   1.0000   1.0000   1.0000   1.0000   1.0000
     1.0000   1.0000   1.0000   1.0000   1.0000   1.0000   1.0000   1.0000
     1.0000   1.0000   1.0000   1.0000   1.0000   1.0000   1.0000   1.0000
     1.0000   1.0000   1.0000   1.0000   1.0000   1.0000   1.0000   1.0000
     1.0000   1.0000   1.0000   1.0000   1.0000   1.0000   1.0000   1.0000
     1.0000   1.0000   1.0000   1.0000   1.0000   1.0000   1.0000   1.0000
     1.0000   1.0000   1.0000   1.0000   0.9779   0.9728   0.9706   0.8420
     0.0000   0.0000   0.0000   0.0000   0.0000   0.0000   0.0000   0.0000
     0.0000   0.0000   0.0000   0.0000   0.0000   0.0000   0.0000   0.0000
     0.0000   0.0000   0.0000   0.0000   0.0000   0.0000   0.0000   0.0000
     0.0000   0.0000   0.0000   0.0000   0.0000   0.0000   0.0000   0.0000

[...]

          k =-0.2500 0.1443 0.0000 ( 48310 PWs)   bands (ev):

[...]

          k = 0.5000-0.2887 0.0000 ( 48322 PWs)   bands (ev):

[...]

          k =-0.5000-0.5774 0.0000 ( 48288 PWs)   bands (ev):

  -108.9672-108.9614-108.9608-108.9564-108.9554-108.9530-108.9520-108.9481
  -108.7554-108.7548-108.7369-108.7340-108.7258-108.7226-108.7219-108.7188
   -66.3822 -66.3758 -66.3741 -66.3694 -66.3683 -66.3583 -66.3577 -66.3492
   -66.3386 -66.3382 -66.3379 -66.3371 -66.3255 -66.3242 -66.3227 -66.3216
   -66.3164 -66.3134 -66.3128 -66.3119 -66.3023 -66.3009 -66.3001 -66.2915
   -66.1892 -66.1806 -66.1795 -66.1717 -66.1673 -66.1575 -66.1569 -66.1475
   -66.1459 -66.1394 -66.1382 -66.1314 -66.1295 -66.1204 -66.1199 -66.1100
   -66.0661 -66.0658 -66.0468 -66.0429 -66.0310 -66.0279 -66.0273 -66.0245
   -20.8033 -19.8324  -5.0205  -4.6834  -4.3760  -4.2790  -3.9196  -2.7013
    -2.3192  -2.3173  -1.4663  -1.4595  -1.2518  -0.8887  -0.8020  -0.6941
    -0.6846  -0.6487  -0.5845  -0.5634  -0.3422  -0.3406  -0.3250  -0.2449
    -0.1100  -0.0681  -0.0656  -0.0501   0.0313   0.0351   0.1027   0.1149
     0.1828   0.1876   0.1894   0.2723   0.4156   0.4203   0.4279   0.4580
     0.5752   0.6184   0.6482   0.6544   0.6621   0.7242   0.7280   0.8065
     0.8093   0.8127   0.8295   0.8761   0.9095   0.9122   0.9779   0.9999
     1.0380   1.0434   1.0476   1.1196   1.2202   1.2333   1.2929   1.2978
     1.3011   1.3028   1.4255   1.4268   1.4363   1.5282   1.5320   1.5788
     1.5823   1.6226   1.6657   1.7130   1.7146   1.7750   1.7980   1.8515
     1.9140   1.9159   1.9191   1.9225   1.9611   1.9969   2.0022   2.0500
     2.0518   2.0595   2.1872   2.1886   2.3105   2.3166   2.4607   3.4442
     3.4696   4.1769   5.7201   5.7580   5.8850   5.9658   6.2542   6.8563
     7.4299   7.9273   7.9707   8.0582   8.2675   8.5150   8.8531   8.8886
     9.4122   9.5615   9.7520   9.9390  10.3955  10.4806  10.6810  10.6865
    10.7529  11.0539  11.2445  11.2760  11.3954  11.5265  11.5724  11.7602

     occupation numbers
     1.0000   1.0000   1.0000   1.0000   1.0000   1.0000   1.0000   1.0000
     1.0000   1.0000   1.0000   1.0000   1.0000   1.0000   1.0000   1.0000
     1.0000   1.0000   1.0000   1.0000   1.0000   1.0000   1.0000   1.0000
     1.0000   1.0000   1.0000   1.0000   1.0000   1.0000   1.0000   1.0000
     1.0000   1.0000   1.0000   1.0000   1.0000   1.0000   1.0000   1.0000
     1.0000   1.0000   1.0000   1.0000   1.0000   1.0000   1.0000   1.0000
     1.0000   1.0000   1.0000   1.0000   1.0000   1.0000   1.0000   1.0000
     1.0000   1.0000   1.0000   1.0000   1.0000   1.0000   1.0000   1.0000
     1.0000   1.0000   1.0000   1.0000   1.0000   1.0000   1.0000   1.0000
     1.0000   1.0000   1.0000   1.0000   1.0000   1.0000   1.0000   1.0000
     1.0000   1.0000   1.0000   1.0000   1.0000   1.0000   1.0000   1.0000
     1.0000   1.0000   1.0000   1.0000   1.0000   1.0000   1.0000   1.0000
     1.0000   1.0000   1.0000   1.0000   1.0000   1.0000   1.0000   1.0000
     1.0000   1.0000   1.0000   1.0000   1.0000   1.0000   1.0000   1.0000
     1.0000   1.0000   1.0000   1.0000   1.0000   1.0000   1.0000   1.0000
     1.0000   1.0000   1.0000   1.0000   1.0000   1.0000   1.0000   1.0000
     1.0000   1.0000   1.0000   1.0000   1.0000   1.0000   1.0000   1.0000
     1.0000   1.0000   1.0000   1.0000   1.0000   1.0000   1.0000   1.0000
     1.0000   1.0000   1.0000   1.0000   1.0000   1.0000   1.0000   1.0000
     1.0000   1.0000   1.0000   1.0000   1.0000   1.0000   1.0000   0.8843
     0.8246   0.0000   0.0000   0.0000   0.0000   0.0000   0.0000   0.0000
     0.0000   0.0000   0.0000   0.0000   0.0000   0.0000   0.0000   0.0000
     0.0000   0.0000   0.0000   0.0000   0.0000   0.0000   0.0000   0.0000
     0.0000   0.0000   0.0000   0.0000   0.0000   0.0000   0.0000   0.0000

     the Fermi energy is     3.5594 ev

!    total energy              =   -7892.05275244 Ry

     total all-electron energy =     -7892.052752 Ry
     estimated scf accuracy    <       0.00000006 Ry
     smearing contrib. (-TS)   =      -0.00755751 Ry
     internal energy E=F+TS    =   -7892.04519494 Ry

     The total energy is F=E-TS. E is the sum of the following terms:
     one-electron contribution =  -61273.19160322 Ry
     hartree contribution      =   29783.19382221 Ry
     xc contribution           =    -524.00903322 Ry
     ewald contribution        =   24864.70349941 Ry
     Dispersion Correction     =      -0.37360229 Ry
     one-center paw contrib.   =    -742.36827783 Ry
      -> PAW hartree energy AE =     328.84612781 Ry
      -> PAW hartree energy PS =    -270.04617781 Ry
      -> PAW xc energy AE      =    -134.20669515 Ry
      -> PAW xc energy PS      =      30.65289531 Ry
      -> total E_H with PAW    =   29841.99377221 Ry
      -> total E_XC with PAW   =    -627.56283305 Ry

     convergence has been achieved in  37 iterations

     Writing all to output data dir ./CO2Cubridge.save/

     General routines

     Parallel routines

     PAW routines

   This run was terminated on:  13:35:16  11Jul2022

   JOB DONE.