     Program PWSCF v.7.0 starts on 30Jun2022 at 19:58:40

     Waiting for input...
     Reading input from standard input

     Current dimensions of program PWSCF are:
     Max number of different atomic species (ntypx) = 10
     Max number of k-points (npk) =  40000
     Max angular momentum in pseudopotentials (lmaxx) =  4
     Message from routine read_pp_mesh:
     mismatch in mesh size, discarding the one in header

     Parameters for Dispersion (Grimme-D2) Correction:
       atom      VdW radius       C_6

        Cu         2.952        374.666
     Found identity + (  0.0000 -0.5000 -0.5000) symmetry
     This is a supercell, fractional translations are disabled

     Using Slab Decomposition

     bravais-lattice index     =           14
     lattice parameter (alat)  =       6.8408  a.u.
     unit-cell volume          =     320.1270 (a.u.)^3
     number of atoms/cell      =            4
     number of atomic types    =            1
     number of electrons       =        76.00 (up:  38.00, down:  38.00)
     number of Kohn-Sham states=           46
     kinetic-energy cutoff     =      80.0000  Ry
     charge density cutoff     =     320.0000  Ry
     scf convergence threshold =      1.0E-08
     mixing beta               =       0.7000
     number of iterations used =            8  plain     mixing
     energy convergence thresh.=      1.0E-04
     force convergence thresh. =      1.0E-03
     press convergence thresh. =      1.0E-02
     Exchange-correlation= SLA PW PBX PBC
                           (   1   4   3   4   0   0   0)
     nstep                     =         1000

     celldm(1)=   6.840809  celldm(2)=   1.000000  celldm(3)=   1.000000
     celldm(4)=   0.000000  celldm(5)=   0.000000  celldm(6)=   0.000000

     crystal axes: (cart. coord. in units of alat)
               a(1) = (   1.000000   0.000000   0.000000 )
               a(2) = (   0.000000   1.000000   0.000000 )
               a(3) = (   0.000000   0.000000   1.000000 )

     reciprocal axes: (cart. coord. in units 2 pi/alat)
               b(1) = (  1.000000  0.000000  0.000000 )
               b(2) = (  0.000000  1.000000  0.000000 )
               b(3) = (  0.000000  0.000000  1.000000 )

     PseudoPot. # 1 for Cu read from file:
     /mnt/ceph/glen3534/Prep/Adsorption/Cu/Cu.save/Cu.upf
     MD5 check sum: 69e544ce53ba1f79758756dbb2f8fbdd
     Pseudo is Projector augmented-wave + core cor, Zval = 19.0
     Generated using ATOMPAW code
     Shape of augmentation charge: SINC**2
     Using radial grid of 2342 points,  6 beta functions with:
                l(1) =   0
                l(2) =   0
                l(3) =   1
                l(4) =   1
                l(5) =   2
                l(6) =   2
     Q(r) pseudized with 0 coefficients

     atomic species   valence    mass     pseudopotential
        Cu            19.00    63.54600     Cu( 1.00)

     Starting magnetic structure
     atomic species   magnetization
        Cu           0.000

     48 Sym. Ops., with inversion, found

                                    s                        frac. trans.

      isym =  1     identity

 cryst.   s( 1) = (     1          0          0      )
                  (     0          1          0      )
                  (     0          0          1      )

 cart.    s( 1) = (  1.0000000  0.0000000  0.0000000 )
                  (  0.0000000  1.0000000  0.0000000 )
                  (  0.0000000  0.0000000  1.0000000 )

      isym =  2     180 deg rotation - cart. axis [0,0,1]

[...]

 cryst.   s( 9) = (     0          0          1      )
                  (     0         -1          0      )
                  (     1          0          0      )

 cart.    s( 9) = (  0.0000000  0.0000000  1.0000000 )
                  (  0.0000000 -1.0000000  0.0000000 )
                  (  1.0000000  0.0000000  0.0000000 )

[...]

 cryst.   s(10) = (     0          0         -1      )
                  (     0         -1          0      )
                  (    -1          0          0      )

 cart.    s(10) = (  0.0000000  0.0000000 -1.0000000 )
                  (  0.0000000 -1.0000000  0.0000000 )
                  ( -1.0000000  0.0000000  0.0000000 )

[...]

      isym = 24     120 deg rotation - cart. axis [-1,-1,1]

[...]

      isym = 25     inversion

[...]

      isym = 26     inv. 180 deg rotation - cart. axis [0,0,1]

[...]

      isym = 48     inv. 120 deg rotation - cart. axis [-1,-1,1]

 cryst.   s(48) = (     0         -1          0      )
                  (     0          0          1      )
                  (     1          0          0      )

 cart.    s(48) = (  0.0000000  0.0000000  1.0000000 )
                  ( -1.0000000  0.0000000  0.0000000 )
                  (  0.0000000  1.0000000  0.0000000 )

     point group O_h (m-3m)
     there are 10 classes
     the character table:

       E     8C3   3C2   6C4   6C2'  i     8S6   3s_h  6S4   6s_d
A_1g   1.00  1.00  1.00  1.00  1.00  1.00  1.00  1.00  1.00  1.00
A_2g   1.00  1.00  1.00 -1.00 -1.00  1.00  1.00  1.00 -1.00 -1.00
E_g    2.00 -1.00  2.00  0.00  0.00  2.00 -1.00  2.00  0.00  0.00
T_1g   3.00  0.00 -1.00  1.00 -1.00  3.00  0.00 -1.00  1.00 -1.00
T_2g   3.00  0.00 -1.00 -1.00  1.00  3.00  0.00 -1.00 -1.00  1.00
A_1u   1.00  1.00  1.00  1.00  1.00 -1.00 -1.00 -1.00 -1.00 -1.00
A_2u   1.00  1.00  1.00 -1.00 -1.00 -1.00 -1.00 -1.00  1.00  1.00
E_u    2.00 -1.00  2.00  0.00  0.00 -2.00  1.00 -2.00  0.00  0.00
T_1u   3.00  0.00 -1.00  1.00 -1.00 -3.00  0.00  1.00 -1.00  1.00
T_2u   3.00  0.00 -1.00 -1.00  1.00 -3.00  0.00  1.00  1.00 -1.00

     the symmetry operations in each class and the name of the first element:

     E        1
          identity
     8C3     17   19   20   18   24   21   22   23
          120 deg rotation - cart. axis [-1,-1,-1]
     3C2      2    4    3
          180 deg rotation - cart. axis [0,0,1]
     6C4      7    8   15   16   12   11
           90 deg rotation - cart. axis [0,0,-1]
     6C2'     5    6   14   13   10    9
          180 deg rotation - cart. axis [1,1,0]
     i       25
          inversion
     8S6     41   43   44   42   48   45   46   47
          inv. 120 deg rotation - cart. axis [-1,-1,-1]
     3s_h    26   28   27
          inv. 180 deg rotation - cart. axis [0,0,1]
     6S4     31   32   39   40   36   35
          inv.  90 deg rotation - cart. axis [0,0,-1]
     6s_d    29   30   38   37   34   33
          inv. 180 deg rotation - cart. axis [1,1,0]

   Cartesian axes

     site n.     atom                  positions (alat units)
         1           Cu  tau(   1) = (   0.0000000   0.0000000   0.0000000  )
         2           Cu  tau(   2) = (   0.0000000   0.5000000   0.5000000  )
         3           Cu  tau(   3) = (   0.5000000   0.0000000   0.5000000  )
         4           Cu  tau(   4) = (   0.5000000   0.5000000   0.0000000  )

   Crystallographic axes

     site n.     atom                  positions (cryst. coord.)
         1           Cu  tau(   1) = (  0.0000000  0.0000000  0.0000000  )
         2           Cu  tau(   2) = (  0.0000000  0.5000000  0.5000000  )
         3           Cu  tau(   3) = (  0.5000000  0.0000000  0.5000000  )
         4           Cu  tau(   4) = (  0.5000000  0.5000000  0.0000000  )

     number of k points=    35  Gaussian smearing, width (Ry)=  0.0100
                       cart. coord. in units 2pi/alat
        k(    1) = (   0.0000000   0.0000000   0.0000000), wk =   0.0013717
        k(    2) = (   0.0000000   0.0000000   0.1111111), wk =   0.0082305
        k(    3) = (   0.0000000   0.0000000   0.2222222), wk =   0.0082305
        k(    4) = (   0.0000000   0.0000000   0.3333333), wk =   0.0082305
        k(    5) = (   0.0000000   0.0000000   0.4444444), wk =   0.0082305
        k(    6) = (   0.0000000   0.1111111   0.1111111), wk =   0.0164609
        k(    7) = (   0.0000000   0.1111111   0.2222222), wk =   0.0329218
        k(    8) = (   0.0000000   0.1111111   0.3333333), wk =   0.0329218
        k(    9) = (   0.0000000   0.1111111   0.4444444), wk =   0.0329218
        k(   10) = (   0.0000000   0.2222222   0.2222222), wk =   0.0164609
        k(   11) = (   0.0000000   0.2222222   0.3333333), wk =   0.0329218
        k(   12) = (   0.0000000   0.2222222   0.4444444), wk =   0.0329218
        k(   13) = (   0.0000000   0.3333333   0.3333333), wk =   0.0164609
        k(   14) = (   0.0000000   0.3333333   0.4444444), wk =   0.0329218
        k(   15) = (   0.0000000   0.4444444   0.4444444), wk =   0.0164609
        k(   16) = (   0.1111111   0.1111111   0.1111111), wk =   0.0109739
        k(   17) = (   0.1111111   0.1111111   0.2222222), wk =   0.0329218
        k(   18) = (   0.1111111   0.1111111   0.3333333), wk =   0.0329218
        k(   19) = (   0.1111111   0.1111111   0.4444444), wk =   0.0329218
        k(   20) = (   0.1111111   0.2222222   0.2222222), wk =   0.0329218
        k(   21) = (   0.1111111   0.2222222   0.3333333), wk =   0.0658436
        k(   22) = (   0.1111111   0.2222222   0.4444444), wk =   0.0658436
        k(   23) = (   0.1111111   0.3333333   0.3333333), wk =   0.0329218
        k(   24) = (   0.1111111   0.3333333   0.4444444), wk =   0.0658436
        k(   25) = (   0.1111111   0.4444444   0.4444444), wk =   0.0329218
        k(   26) = (   0.2222222   0.2222222   0.2222222), wk =   0.0109739
        k(   27) = (   0.2222222   0.2222222   0.3333333), wk =   0.0329218
        k(   28) = (   0.2222222   0.2222222   0.4444444), wk =   0.0329218
        k(   29) = (   0.2222222   0.3333333   0.3333333), wk =   0.0329218
        k(   30) = (   0.2222222   0.3333333   0.4444444), wk =   0.0658436
        k(   31) = (   0.2222222   0.4444444   0.4444444), wk =   0.0329218
        k(   32) = (   0.3333333   0.3333333   0.3333333), wk =   0.0109739
        k(   33) = (   0.3333333   0.3333333   0.4444444), wk =   0.0329218
        k(   34) = (   0.3333333   0.4444444   0.4444444), wk =   0.0329218
        k(   35) = (   0.4444444   0.4444444   0.4444444), wk =   0.0109739

                       cryst. coord.
        k(    1) = (   0.0000000   0.0000000   0.0000000), wk =   0.0013717
        k(    2) = (   0.0000000   0.0000000   0.1111111), wk =   0.0082305
        k(    3) = (   0.0000000   0.0000000   0.2222222), wk =   0.0082305
        k(    4) = (   0.0000000   0.0000000   0.3333333), wk =   0.0082305
        k(    5) = (   0.0000000   0.0000000   0.4444444), wk =   0.0082305
        k(    6) = (   0.0000000   0.1111111   0.1111111), wk =   0.0164609
        k(    7) = (   0.0000000   0.1111111   0.2222222), wk =   0.0329218
        k(    8) = (   0.0000000   0.1111111   0.3333333), wk =   0.0329218
        k(    9) = (   0.0000000   0.1111111   0.4444444), wk =   0.0329218
        k(   10) = (   0.0000000   0.2222222   0.2222222), wk =   0.0164609
        k(   11) = (   0.0000000   0.2222222   0.3333333), wk =   0.0329218
        k(   12) = (   0.0000000   0.2222222   0.4444444), wk =   0.0329218
        k(   13) = (   0.0000000   0.3333333   0.3333333), wk =   0.0164609
        k(   14) = (   0.0000000   0.3333333   0.4444444), wk =   0.0329218
[...]

     enthalpy           new  =   -1947.6696771901 Ry

     new trust radius        =       0.0293888350 bohr
ibrav =     14
 celldm(1) =      6.78462638
 celldm(2) =      1.00000000
 celldm(3) =      1.00000000
Input lattice vectors:
     0.99178720     0.00000000     0.00000000
     0.00000000     0.99178720     0.00000000
     0.00000000     0.00000000     0.99178720
New lattice vectors in INITIAL alat:
     0.99178720     0.00000000     0.00000000
     0.00000000     0.99178720     0.00000000
     0.00000000     0.00000000     0.99178720
New lattice vectors in NEW alat (for information only):
     1.00000000     0.00000000     0.00000000
     0.00000000     1.00000000     0.00000000
     0.00000000     0.00000000     1.00000000
Discrepancy in bohr =     0.000000    0.000000    0.000000
     new conv_thr            =       0.0000000100 Ry

     new unit-cell volume =    312.30419 a.u.^3 (    46.27871 Ang^3 )
     density =      9.12045 g/cm^3

CELL_PARAMETERS (alat=  6.84080857)
   0.991787201   0.000000000   0.000000000
   0.000000000   0.991787201   0.000000000
   0.000000000   0.000000000   0.991787201

ATOMIC_POSITIONS (crystal)
Cu            0.0000000000        0.0000000000        0.0000000000
Cu            0.0000000000        0.5000000000        0.5000000000
Cu            0.5000000000        0.0000000000        0.5000000000
Cu            0.5000000000        0.5000000000        0.0000000000

     Writing config-only to output data dir ./Cu.save/
     NEW-OLD atomic charge density approx. for the potential

     Check: negative core charge=   -0.000006
     extrapolated charge   74.09633, renormalised to   76.00000
     Generating pointlists ...

[...]

     Energy error            =      1.3E-03 Ry
     Gradient error          =      0.0E+00 Ry/Bohr
     Cell gradient error     =      2.8E+00 kbar

[...]

     enthalpy           old  =   -1947.6696771901 Ry
     enthalpy           new  =   -1947.6709751031 Ry

     CASE: enthalpy          _new < enthalpy          _old

[...]

     WARNING: bfgs curvature condition failed, Theta= 0.413
     new trust radius        =       0.0014071123 bohr
ibrav =     14
 celldm(1) =      6.77847726
 celldm(2) =      1.00000000
 celldm(3) =      1.00000000
Input lattice vectors:
     0.99088831     0.00000000     0.00000000
     0.00000000     0.99088831     0.00000000
     0.00000000     0.00000000     0.99088831
New lattice vectors in INITIAL alat:
     0.99088831     0.00000000     0.00000000
     0.00000000     0.99088831     0.00000000
     0.00000000     0.00000000     0.99088831
New lattice vectors in NEW alat (for information only):
     1.00000000     0.00000000     0.00000000
     0.00000000     1.00000000     0.00000000
     0.00000000     0.00000000     1.00000000
Discrepancy in bohr =     0.000000    0.000000    0.000000
     new conv_thr            =            1.0E-10 Ry

[...]

     CASE: enthalpy          _new < enthalpy          _old

     new trust radius        =       0.0001229479 bohr
ibrav =     14
 celldm(1) =      6.77415007
 celldm(2) =      1.00000000
 celldm(3) =      1.00000000
Input lattice vectors:
     0.99025576     0.00000000     0.00000000
     0.00000000     0.99025576     0.00000000
     0.00000000     0.00000000     0.99025576
New lattice vectors in INITIAL alat:
     0.99025576     0.00000000     0.00000000
     0.00000000     0.99025576     0.00000000
     0.00000000     0.00000000     0.99025576
New lattice vectors in NEW alat (for information only):
     1.00000000     0.00000000     0.00000000
     0.00000000     1.00000000     0.00000000
     0.00000000     0.00000000     1.00000000
Discrepancy in bohr =     0.000000    0.000000    0.000000
     new conv_thr            =            1.0E-10 Ry

[...]

     Threshold (ethr) on eigenvalues was too large:
     Diagonalizing with lowered threshold

     Davidson diagonalization with overlap

[...]

     c_bands:  1 eigenvalues not converged
     ethr =  9.18E-13,  avg # of iterations =  5.8

[...]

     CASE: enthalpy          _new > enthalpy          _old

     new trust radius        =       0.0000163545 bohr

     trust_radius < trust_radius_min

     resetting bfgs history

ibrav =     14
 celldm(1) =      6.77410908
 celldm(2) =      1.00000000
 celldm(3) =      1.00000000
Input lattice vectors:
     0.99024976     0.00000000     0.00000000
     0.00000000     0.99024976     0.00000000
     0.00000000     0.00000000     0.99024976
New lattice vectors in INITIAL alat:
     0.99024976     0.00000000     0.00000000
     0.00000000     0.99024976     0.00000000
     0.00000000     0.00000000     0.99024976
New lattice vectors in NEW alat (for information only):
     1.00000000     0.00000000     0.00000000
     0.00000000     1.00000000     0.00000000
     0.00000000     0.00000000     1.00000000
Discrepancy in bohr =     0.000000    0.000000    0.000000
     new conv_thr            =            1.0E-10 Ry

[...]

     Check: negative core charge=   -0.000006
     extrapolated charge   75.99862, renormalised to   76.00000
     Generating pointlists ...

[...]

     Energy error            =      8.3E-08 Ry
     Gradient error          =      0.0E+00 Ry/Bohr
     Cell gradient error     =      1.4E-02 kbar

     number of scf cycles    =   8
     number of bfgs steps    =   6

     enthalpy           old  =   -1947.6710139161 Ry
     enthalpy           new  =   -1947.6710138330 Ry

     CASE: enthalpy          _new > enthalpy          _old

     new trust radius        =       0.0000137949 bohr

     trust_radius < trust_radius_min

     resetting bfgs history

     Message from routine bfgs:
     history already reset at previous step: stopping
ibrav =     14
 celldm(1) =      6.77410908
 celldm(2) =      1.00000000
 celldm(3) =      1.00000000
Input lattice vectors:
     0.99024977     0.00000000     0.00000000
     0.00000000     0.99024977     0.00000000
     0.00000000     0.00000000     0.99024977
New lattice vectors in INITIAL alat:
     0.99024977     0.00000000     0.00000000
     0.00000000     0.99024977     0.00000000
     0.00000000     0.00000000     0.99024977
New lattice vectors in NEW alat (for information only):
     1.00000000     0.00000000     0.00000000
     0.00000000     1.00000000     0.00000000
     0.00000000     0.00000000     1.00000000
Discrepancy in bohr =     0.000000    0.000000    0.000000
     new conv_thr            =            1.0E-10 Ry

     new unit-cell volume =    310.85407 a.u.^3 (    46.06382 Ang^3 )
     density =      9.16299 g/cm^3

[...]

ATOMIC_POSITIONS (crystal)
Cu            0.0000000000        0.0000000000        0.0000000000
Cu            0.0000000000        0.5000000000        0.5000000000
Cu            0.5000000000        0.0000000000        0.5000000000
Cu            0.5000000000        0.5000000000        0.0000000000

     Writing config-only to output data dir ./Cu.save/
     NEW-OLD atomic charge density approx. for the potential

     Check: negative core charge=   -0.000006
     Generating pointlists ...

     Self-consistent Calculation

[...]

     Threshold (ethr) on eigenvalues was too large:
     Diagonalizing with lowered threshold

     Davidson diagonalization with overlap

[...]

     total energy              =   -1947.67101383 Ry
     estimated scf accuracy    <          4.4E-10 Ry

[...]

     iteration #  4     ecut=    80.00 Ry     beta= 0.70
     Davidson diagonalization with overlap

     ethr =  5.76E-13,  avg # of iterations =  1.9

     Magnetic moment per site  (integrated on atomic sphere of radius R)
     atom   1 (R=0.292)  charge= 17.8524  magn= -0.0000
     atom   2 (R=0.292)  charge= 17.8524  magn=  0.0000
     atom   3 (R=0.292)  charge= 17.8524  magn=  0.0000
     atom   4 (R=0.292)  charge= 17.8524  magn=  0.0000

     End of self-consistent calculation

 ------ SPIN UP ------------

[...]

 ------ SPIN DOWN ----------

[...]

          k = 0.4488 0.4488 0.4488 (  3876 PWs)   bands (ev):

[...]

     occupation numbers
     1.0000   1.0000   1.0000   1.0000   1.0000   1.0000   1.0000   1.0000
     1.0000   1.0000   1.0000   1.0000   1.0000   1.0000   1.0000   1.0000
     1.0000   1.0000   1.0000   1.0000   1.0000   1.0000   1.0000   1.0000
     1.0000   1.0000   1.0000   1.0000   1.0000   1.0000   1.0000   1.0000
     1.0000   1.0000   1.0000   1.0000   1.0000   1.0000   1.0000   1.0000
     0.0000   0.0000   0.0000   0.0000   0.0000   0.0000

     the spin up/dw Fermi energies are    20.4592   20.4592 ev

!    total energy              =   -1947.67101383 Ry

     total all-electron energy =     -1947.671014 Ry
     estimated scf accuracy    <          4.5E-13 Ry
     smearing contrib. (-TS)   =      -0.00071107 Ry
     internal energy E=F+TS    =   -1947.67030277 Ry

     The total energy is F=E-TS. E is the sum of the following terms:
     one-electron contribution =    -991.96216256 Ry
     hartree contribution      =     327.31422965 Ry
     xc contribution           =    -126.55936267 Ry
     ewald contribution        =    -977.33011910 Ry
     Dispersion Correction     =      -0.12495545 Ry
     one-center paw contrib.   =    -179.00793264 Ry
      -> PAW hartree energy AE =    1315.76364884 Ry
      -> PAW hartree energy PS =   -1080.53225402 Ry
      -> PAW xc energy AE      =    -536.82535467 Ry
      -> PAW xc energy PS      =     122.58602721 Ry
      -> total E_H with PAW    =     562.54562446 Ry
      -> total E_XC with PAW   =    -540.79869013 Ry

     total magnetization       =     0.00 Bohr mag/cell
     absolute magnetization    =     0.00 Bohr mag/cell

     convergence has been achieved in   4 iterations

     Forces acting on atoms (cartesian axes, Ry/au):

     atom    1 type  1   force =     0.00000000    0.00000000    0.00000000
     atom    2 type  1   force =     0.00000000    0.00000000    0.00000000
     atom    3 type  1   force =     0.00000000    0.00000000    0.00000000
     atom    4 type  1   force =     0.00000000    0.00000000    0.00000000
     The non-local contrib.  to forces
     atom    1 type  1   force =     0.00000000    0.00000000    0.00000000
     atom    2 type  1   force =     0.00000000    0.00000000    0.00000000
     atom    3 type  1   force =     0.00000000    0.00000000    0.00000000
     atom    4 type  1   force =     0.00000000    0.00000000    0.00000000
     The ionic contribution  to forces
     atom    1 type  1   force =    -0.00000000   -0.00000000   -0.00000000
     atom    2 type  1   force =    -0.00000000    0.00000000    0.00000000
     atom    3 type  1   force =     0.00000000   -0.00000000    0.00000000
     atom    4 type  1   force =     0.00000000    0.00000000   -0.00000000
     The local contribution  to forces
     atom    1 type  1   force =     0.00000000    0.00000000    0.00000000
     atom    2 type  1   force =     0.00000000   -0.00000000   -0.00000000
     atom    3 type  1   force =    -0.00000000    0.00000000   -0.00000000
     atom    4 type  1   force =    -0.00000000   -0.00000000    0.00000000
     The core correction contribution to forces
     atom    1 type  1   force =     0.00000000   -0.00000000    0.00000000
     atom    2 type  1   force =     0.00000000   -0.00000000   -0.00000000
     atom    3 type  1   force =    -0.00000000    0.00000000   -0.00000000
     atom    4 type  1   force =    -0.00000000   -0.00000000    0.00000000
     The Hubbard contrib.    to forces
     atom    1 type  1   force =     0.00000000    0.00000000    0.00000000
     atom    2 type  1   force =     0.00000000    0.00000000    0.00000000
     atom    3 type  1   force =     0.00000000    0.00000000    0.00000000
     atom    4 type  1   force =     0.00000000    0.00000000    0.00000000
     The SCF correction term to forces
     atom    1 type  1   force =     0.00000000    0.00000000    0.00000000
     atom    2 type  1   force =     0.00000000    0.00000000    0.00000000
     atom    3 type  1   force =     0.00000000    0.00000000    0.00000000
     atom    4 type  1   force =     0.00000000    0.00000000    0.00000000

     Dispersion contribution to forces:
     atom    1 type  1   force =    -0.00000000   -0.00000000    0.00000000
     atom    2 type  1   force =    -0.00000000   -0.00000000   -0.00000000
     atom    3 type  1   force =    -0.00000000   -0.00000000   -0.00000000
     atom    4 type  1   force =    -0.00000000   -0.00000000    0.00000000

     Total force =     0.000000     Total SCF correction =     0.000000

     Total Dispersion Force =     0.000000

     Computing stress (Cartesian axis) and pressure

          total   stress  (Ry/bohr**3)                   (kbar)     P=       -0.55
  -0.00000373   0.00000000   0.00000000           -0.55        0.00        0.00
   0.00000000  -0.00000373   0.00000000            0.00       -0.55        0.00
   0.00000000   0.00000000  -0.00000373            0.00        0.00       -0.55

     kinetic stress (kbar)  23672.89      0.00      0.00
                                0.00  23672.89      0.00
                                0.00      0.00  23672.89

     local   stress (kbar) -32522.04     -0.00     -0.00
                               -0.00 -32522.04     -0.00
                               -0.00     -0.00 -32522.04

     nonloc. stress (kbar) 130466.50      0.00      0.00
                                0.00 130466.50      0.00
                                0.00      0.00 130466.50

     hartree stress (kbar)  51631.50     -0.00      0.00
                               -0.00  51631.50      0.00
                                0.00      0.00  51631.50

     exc-cor stress (kbar) -18778.69     -0.00      0.00
                               -0.00 -18778.69     -0.00
                                0.00     -0.00 -18778.69

     corecor stress (kbar)   -222.96     -0.00      0.00
                               -0.00   -222.96      0.00
                                0.00      0.00   -222.96

     ewald   stress (kbar)-154166.90      0.00     -0.00
                                0.00-154166.90     -0.00
                               -0.00     -0.00-154166.90

     hubbard stress (kbar)      0.00      0.00      0.00
                                0.00      0.00      0.00
                                0.00      0.00      0.00

     DFT-D   stress (kbar)    -80.86     -0.00     -0.00
                               -0.00    -80.86     -0.00
                               -0.00     -0.00    -80.86

     XDM     stress (kbar)      0.00      0.00      0.00
                                0.00      0.00      0.00
                                0.00      0.00      0.00

     dft-nl  stress (kbar)      0.00      0.00      0.00
                                0.00      0.00      0.00
                                0.00      0.00      0.00

     TS-vdW  stress (kbar)      0.00      0.00      0.00
                                0.00      0.00      0.00
                                0.00      0.00      0.00

[...]

                                0.00      0.00      0.00

     Message from routine bfgs:
     history already reset at previous step: exiting
     Energy error            =      8.3E-08 Ry
     Gradient error          =      0.0E+00 Ry/Bohr
     Cell gradient error     =      5.5E-01 kbar
ibrav =     14
 celldm(1) =      6.77410908
 celldm(2) =      1.00000000
 celldm(3) =      1.00000000
Input lattice vectors:
     0.99024977     0.00000000     0.00000000
     0.00000000     0.99024977     0.00000000
     0.00000000     0.00000000     0.99024977
New lattice vectors in INITIAL alat:
     0.99024977     0.00000000     0.00000000
     0.00000000     0.99024977     0.00000000
     0.00000000     0.00000000     0.99024977
New lattice vectors in NEW alat (for information only):
     1.00000000     0.00000000     0.00000000
     0.00000000     1.00000000     0.00000000
     0.00000000     0.00000000     1.00000000
Discrepancy in bohr =     0.000000    0.000000    0.000000
Begin final coordinates
     new unit-cell volume =    310.85407 a.u.^3 (    46.06382 Ang^3 )
     density =      9.16299 g/cm^3

CELL_PARAMETERS (alat=  6.84080857)
   0.990249765   0.000000000   0.000000000
   0.000000000   0.990249765   0.000000000
   0.000000000   0.000000000   0.990249765

ATOMIC_POSITIONS (crystal)
Cu            0.0000000000        0.0000000000        0.0000000000
Cu            0.0000000000        0.5000000000        0.5000000000
Cu            0.5000000000        0.0000000000        0.5000000000
Cu            0.5000000000        0.5000000000        0.0000000000
End final coordinates

     Writing config-only to output data dir ./Cu.save/

     Writing all to output data dir ./Cu.save/

     General routines

     PAW routines

   This run was terminated on:  23:41:36  30Jun2022

   JOB DONE.