     Program PWSCF v.7.0 starts on 15Jul2022 at 15:44: 5

     R & G space division:  proc/nbgrp/npool/nimage =      64

     Waiting for input...
     Reading input from standard input

     Current dimensions of program PWSCF are:
     Max number of different atomic species (ntypx) = 10
     Max number of k-points (npk) =  40000
     Max angular momentum in pseudopotentials (lmaxx) =  4
     Message from routine read_pp_mesh:
     mismatch in mesh size, discarding the one in header

     Parameters for Dispersion (Grimme-D2) Correction:
       atom      VdW radius       C_6

        Cu         2.952        374.666
     Found identity + ( -0.5000  0.0000  0.0000) symmetry
     This is a supercell, fractional translations are disabled

     Subspace diagonalization in iterative solution of the eigenvalue problem:
     a serial algorithm will be used

     Using Slab Decomposition

     bravais-lattice index     =           14
     lattice parameter (alat)  =       9.6476  a.u.
     unit-cell volume          =    3998.9451 (a.u.)^3
     number of atoms/cell      =           16
     number of atomic types    =            1
     number of electrons       =       304.00
     number of Kohn-Sham states=          182
     kinetic-energy cutoff     =      80.0000  Ry
     charge density cutoff     =     320.0000  Ry
     scf convergence threshold =      1.0E-06
     mixing beta               =       0.7000
     number of iterations used =            8  plain     mixing
     Exchange-correlation= SLA PW PBX PBC
                           (   1   4   3   4   0   0   0)

     celldm(1)=   9.647638  celldm(2)=   1.000000  celldm(3)=   5.142234
     celldm(4)=   0.000000  celldm(5)=   0.000000  celldm(6)=   0.500000

     crystal axes: (cart. coord. in units of alat)
               a(1) = (   1.000000   0.000000   0.000000 )
               a(2) = (   0.500000   0.866025   0.000000 )
               a(3) = (   0.000000   0.000000   5.142234 )

     reciprocal axes: (cart. coord. in units 2 pi/alat)
               b(1) = (  1.000000 -0.577350  0.000000 )
               b(2) = (  0.000000  1.154701  0.000000 )
               b(3) = (  0.000000  0.000000  0.194468 )

     PseudoPot. # 1 for Cu read from file:
     /mnt/ceph/glen3534/Prep/Adsorption/Cu/Cu.save/Cu.upf
     MD5 check sum: 69e544ce53ba1f79758756dbb2f8fbdd
     Pseudo is Projector augmented-wave + core cor, Zval = 19.0
     Generated using ATOMPAW code
     Shape of augmentation charge: SINC**2
     Using radial grid of 2342 points,  6 beta functions with:
                l(1) =   0
                l(2) =   0
                l(3) =   1
                l(4) =   1
                l(5) =   2
                l(6) =   2
     Q(r) pseudized with 0 coefficients

     atomic species   valence    mass     pseudopotential
        Cu            19.00    63.54600     Cu( 1.00)

      6 Sym. Ops. (no inversion) found

                                    s                        frac. trans.

      isym =  1     identity

 cryst.   s( 1) = (     1          0          0      )
                  (     0          1          0      )
                  (     0          0          1      )

 cart.    s( 1) = (  1.0000000  0.0000000  0.0000000 )
                  (  0.0000000  1.0000000  0.0000000 )
                  (  0.0000000  0.0000000  1.0000000 )

      isym =  2     120 deg rotation - cryst. axis [0,0,1]

[...]

      isym =  3     120 deg rotation - cryst. axis [0,0,-1]

[...]

      isym =  4     inv. 180 deg rotation - cart. axis [1,0,0]

[...]

      isym =  5     inv. 180 deg rotation - cryst. axis [0,1,0]

[...]

      isym =  6     inv. 180 deg rotation - cryst. axis [1,1,0]

 cryst.   s( 6) = (     1         -1          0      )
                  (     0         -1          0      )
                  (     0          0          1      )

 cart.    s( 6) = (  0.5000000 -0.8660254  0.0000000 )
                  ( -0.8660254 -0.5000000  0.0000000 )
                  (  0.0000000  0.0000000  1.0000000 )

     point group C_3v (3m)
     there are  3 classes
     the character table:

       E     2C3   3s_v
A_1    1.00  1.00  1.00
A_2    1.00  1.00 -1.00
E      2.00 -1.00  0.00

     the symmetry operations in each class and the name of the first element:

     E        1
          identity
     2C3      2    3
          120 deg rotation - cryst. axis [0,0,1]
     3s_v     4    5    6
          inv. 180 deg rotation - cart. axis [1,0,0]

   Cartesian axes

     site n.     atom                  positions (alat units)
         1           Cu  tau(   1) = (   0.0000000   0.0000000   0.0000000  )
         2           Cu  tau(   2) = (   0.5000001   0.0000000   0.0000000  )
         3           Cu  tau(   3) = (   0.2500000   0.4330128   0.0000000  )
         4           Cu  tau(   4) = (   0.7500001   0.4330128   0.0000000  )
         5           Cu  tau(   5) = (   0.2500000   0.1443376   0.4082484  )
         6           Cu  tau(   6) = (   0.7500001   0.1443376   0.4082484  )
         7           Cu  tau(   7) = (   0.5000001   0.5773504   0.4082484  )
         8           Cu  tau(   8) = (   1.0000002   0.5773504   0.4082484  )
         9           Cu  tau(   9) = (  -0.0000000   0.2886752   0.8164967  )
        10           Cu  tau(  10) = (   0.5000001   0.2886752   0.8164967  )
        11           Cu  tau(  11) = (   0.2500000   0.7216880   0.8164967  )
        12           Cu  tau(  12) = (   0.7500001   0.7216880   0.8164967  )
        13           Cu  tau(  13) = (   0.0000000   0.0000000   1.2247451  )
        14           Cu  tau(  14) = (   0.5000001   0.0000000   1.2247451  )
        15           Cu  tau(  15) = (   0.2500000   0.4330128   1.2247451  )
        16           Cu  tau(  16) = (   0.7500001   0.4330128   1.2247451  )

   Crystallographic axes

     site n.     atom                  positions (cryst. coord.)
         1           Cu  tau(   1) = (  0.0000000  0.0000000  0.0000000  )
         2           Cu  tau(   2) = (  0.5000001  0.0000000  0.0000000  )
         3           Cu  tau(   3) = ( -0.0000000  0.5000001  0.0000000  )
         4           Cu  tau(   4) = (  0.5000001  0.5000001  0.0000000  )
         5           Cu  tau(   5) = (  0.1666667  0.1666667  0.0793912  )
         6           Cu  tau(   6) = (  0.6666668  0.1666667  0.0793912  )
         7           Cu  tau(   7) = (  0.1666667  0.6666668  0.0793912  )
         8           Cu  tau(   8) = (  0.6666668  0.6666668  0.0793912  )
         9           Cu  tau(   9) = ( -0.1666667  0.3333334  0.1587825  )
        10           Cu  tau(  10) = (  0.3333334  0.3333334  0.1587825  )
        11           Cu  tau(  11) = ( -0.1666667  0.8333335  0.1587825  )
        12           Cu  tau(  12) = (  0.3333334  0.8333335  0.1587825  )
        13           Cu  tau(  13) = (  0.0000000  0.0000000  0.2381737  )
        14           Cu  tau(  14) = (  0.5000001  0.0000000  0.2381737  )
        15           Cu  tau(  15) = ( -0.0000000  0.5000001  0.2381737  )
        16           Cu  tau(  16) = (  0.5000001  0.5000001  0.2381737  )

     number of k points=     4  Gaussian smearing, width (Ry)=  0.0100
                       cart. coord. in units 2pi/alat
        k(    1) = (   0.0000000   0.0000000   0.0000000), wk =   0.1250000
        k(    2) = (   0.0000000   0.2886751   0.0000000), wk =   0.7500000
        k(    3) = (   0.0000000  -0.5773503   0.0000000), wk =   0.3750000
        k(    4) = (   0.2500000  -0.7216878   0.0000000), wk =   0.7500000

                       cryst. coord.
        k(    1) = (   0.0000000   0.0000000   0.0000000), wk =   0.1250000
        k(    2) = (   0.0000000   0.2500000   0.0000000), wk =   0.7500000
        k(    3) = (   0.0000000  -0.5000000   0.0000000), wk =   0.3750000
        k(    4) = (   0.2500000  -0.5000000   0.0000000), wk =   0.7500000

     Check: negative core charge=   -0.000003

     Initial potential from superposition of free atoms

     starting charge     303.9947, renormalised to     304.0000

     negative rho (up, down):  8.096E-03 0.000E+00
     Starting wfcs are  288 randomized atomic wfcs
     Checking if some PAW data can be deallocated...

     Self-consistent Calculation

     iteration #  1     ecut=    80.00 Ry     beta= 0.70
     Davidson diagonalization with overlap

     c_bands:  1 eigenvalues not converged
     ethr =  1.00E-02,  avg # of iterations = 16.2

     negative rho (up, down):  2.526E-03 0.000E+00

     total energy              =   -7757.88139326 Ry
     estimated scf accuracy    <      27.68990003 Ry

[...]

     ethr =  9.11E-03,  avg # of iterations = 10.5

[...]

     c_bands:  1 eigenvalues not converged
     ethr =  7.95E-07,  avg # of iterations =  8.5

[...]

     total energy              =   -7790.25089622 Ry
     estimated scf accuracy    <       0.00000222 Ry

     iteration # 31     ecut=    80.00 Ry     beta= 0.70
     Davidson diagonalization with overlap

     ethr =  7.31E-10,  avg # of iterations =  2.0

     negative rho (up, down):  8.349E-03 0.000E+00

     End of self-consistent calculation

          k = 0.0000 0.0000 0.0000 ( 48435 PWs)   bands (ev):

  -109.5248-109.5178-109.5132-109.5132-109.5126-109.5108-109.5108-109.5103
  -109.3109-109.3109-109.3021-109.3018-109.3018-109.3013-109.3013-109.3008
   -66.9401 -66.9398 -66.9398 -66.9353 -66.9352 -66.9352 -66.9338 -66.8983
   -66.8983 -66.8980 -66.8839 -66.8839 -66.8834 -66.8802 -66.8767 -66.8764
   -66.8764 -66.8641 -66.8638 -66.8638 -66.8533 -66.8533 -66.8452 -66.8452
   -66.7616 -66.7616 -66.7616 -66.7612 -66.7612 -66.7612 -66.7017 -66.7016
   -66.7016 -66.7012 -66.7012 -66.7012 -66.6808 -66.6808 -66.6807 -66.6807
   -66.6177 -66.6172 -66.6098 -66.6097 -66.6097 -66.6091 -66.6091 -66.6087
    -5.8639  -4.6098  -2.9306  -2.0728  -1.7689  -1.7689  -1.7689  -1.6464
    -1.6463  -1.6463  -1.2526  -1.2525  -1.2525  -1.2110  -1.2109  -1.2109
    -1.1453  -1.1453  -1.1453  -0.7673  -0.7673  -0.7673  -0.1825  -0.1824
    -0.1824  -0.0015  -0.0003  -0.0003  -0.0003   0.0299   0.1136   0.1136
     0.1653   0.1653   0.2179   0.2181   0.2181   0.3092   0.3306   0.3306
     0.3695   0.3696   0.3697   0.3765   0.3765   0.6714   0.6715   0.6715
     0.6912   0.6912   0.6914   0.9255   0.9255   1.0544   1.0544   1.1717
     1.1718   1.1718   1.2334   1.2334   1.2335   1.3304   1.3304   1.4313
     1.4314   1.4314   1.4420   1.4420   1.4422   1.4769   1.4769   1.5037
     1.5040   1.5040   1.5650   1.5652   1.5652   1.6828   1.6828   1.6828
     1.6911   1.6911   1.6911   1.8443   2.8175   2.8311   2.8311   2.8311
     3.8254   3.8254   3.8254   4.3958   4.3958   4.3959   4.6026   4.6026
     4.6026   7.0944   7.0950   7.3740   7.3740   7.3740   7.7821   8.1106
     8.2138   8.2139   8.2139   9.1835   9.1835   9.1835   9.4499   9.5490
    10.3914  10.3915  10.3915  11.4244  11.7991  11.9733

     occupation numbers
     1.0000   1.0000   1.0000   1.0000   1.0000   1.0000   1.0000   1.0000
     1.0000   1.0000   1.0000   1.0000   1.0000   1.0000   1.0000   1.0000
     1.0000   1.0000   1.0000   1.0000   1.0000   1.0000   1.0000   1.0000
     1.0000   1.0000   1.0000   1.0000   1.0000   1.0000   1.0000   1.0000
     1.0000   1.0000   1.0000   1.0000   1.0000   1.0000   1.0000   1.0000
     1.0000   1.0000   1.0000   1.0000   1.0000   1.0000   1.0000   1.0000
     1.0000   1.0000   1.0000   1.0000   1.0000   1.0000   1.0000   1.0000
     1.0000   1.0000   1.0000   1.0000   1.0000   1.0000   1.0000   1.0000
     1.0000   1.0000   1.0000   1.0000   1.0000   1.0000   1.0000   1.0000
     1.0000   1.0000   1.0000   1.0000   1.0000   1.0000   1.0000   1.0000
     1.0000   1.0000   1.0000   1.0000   1.0000   1.0000   1.0000   1.0000
     1.0000   1.0000   1.0000   1.0000   1.0000   1.0000   1.0000   1.0000
     1.0000   1.0000   1.0000   1.0000   1.0000   1.0000   1.0000   1.0000
     1.0000   1.0000   1.0000   1.0000   1.0000   1.0000   1.0000   1.0000
     1.0000   1.0000   1.0000   1.0000   1.0000   1.0000   1.0000   1.0000
     1.0000   1.0000   1.0000   1.0000   1.0000   1.0000   1.0000   1.0000
     1.0000   1.0000   1.0000   1.0000   1.0000   1.0000   1.0000   1.0000
     1.0000   1.0000   1.0000   1.0000   1.0000   1.0000   1.0000   1.0000
     1.0000   1.0000   1.0000   1.0000   0.9646   0.9521   0.9521   0.9521
     0.0000   0.0000   0.0000   0.0000   0.0000   0.0000   0.0000   0.0000
     0.0000   0.0000   0.0000   0.0000   0.0000   0.0000   0.0000   0.0000
     0.0000   0.0000   0.0000   0.0000   0.0000   0.0000   0.0000   0.0000
     0.0000   0.0000   0.0000   0.0000   0.0000   0.0000

[...]

          k = 0.2500-0.7217 0.0000 ( 48288 PWs)   bands (ev):

  -109.5204-109.5164-109.5161-109.5147-109.5123-109.5121-109.5112-109.5103
  -109.3073-109.3072-109.3041-109.3041-109.3036-109.3035-109.3005-109.3004
   -66.9258 -66.9257 -66.9224 -66.9222 -66.9220 -66.9144 -66.9144 -66.9054
   -66.8984 -66.8983 -66.8966 -66.8921 -66.8846 -66.8822 -66.8793 -66.8790
   -66.8778 -66.8728 -66.8727 -66.8725 -66.8639 -66.8639 -66.8621 -66.8546
   -66.7475 -66.7473 -66.7375 -66.7374 -66.7372 -66.7372 -66.7263 -66.7261
   -66.7118 -66.7116 -66.7005 -66.7005 -66.7004 -66.7004 -66.6903 -66.6902
   -66.6143 -66.6142 -66.6117 -66.6115 -66.6111 -66.6110 -66.6084 -66.6084
    -4.4237  -3.2676  -2.8145  -2.8144  -2.0102  -2.0101  -1.7865  -1.2344
    -1.2343  -1.1938  -1.0907  -1.0723  -0.8676  -0.8676  -0.8406  -0.7965
    -0.6563  -0.6279  -0.6279  -0.5698  -0.5065  -0.5064  -0.4595  -0.4504
    -0.3597  -0.3596  -0.3482  -0.2700  -0.1389  -0.1389  -0.1237  -0.0872
     0.0114   0.0500   0.0776   0.1205   0.1206   0.1582   0.1583   0.2465
     0.2466   0.2494   0.2860   0.3044   0.3318   0.3319   0.4135   0.4376
     0.4767   0.4857   0.4858   0.5567   0.6624   0.6672   0.7030   0.7274
     0.7315   0.7316   0.8498   0.8500   0.8648   0.9592   0.9649   1.0238
     1.0240   1.0441   1.0926   1.1472   1.1475   1.2092   1.2185   1.2829
     1.3434   1.3435   1.3451   1.3452   1.3806   1.4173   1.4191   1.4675
     1.4675   1.4806   1.6191   1.6191   1.7397   1.7397   1.8579   2.8615
     2.8616   3.5339   5.0995   5.0996   5.3121   5.3445   5.7052   6.2985
     6.8519   7.5327   7.5327   8.2696   8.3672   8.5425   9.0309   9.2274
     9.3887   9.3983  10.0059  10.0059  10.0776  10.4614  10.4614  10.8573
    10.8602  11.0222  11.0349  11.0349  11.1698  11.1698

     occupation numbers
     1.0000   1.0000   1.0000   1.0000   1.0000   1.0000   1.0000   1.0000
     1.0000   1.0000   1.0000   1.0000   1.0000   1.0000   1.0000   1.0000
     1.0000   1.0000   1.0000   1.0000   1.0000   1.0000   1.0000   1.0000
     1.0000   1.0000   1.0000   1.0000   1.0000   1.0000   1.0000   1.0000
     1.0000   1.0000   1.0000   1.0000   1.0000   1.0000   1.0000   1.0000
     1.0000   1.0000   1.0000   1.0000   1.0000   1.0000   1.0000   1.0000
     1.0000   1.0000   1.0000   1.0000   1.0000   1.0000   1.0000   1.0000
     1.0000   1.0000   1.0000   1.0000   1.0000   1.0000   1.0000   1.0000
     1.0000   1.0000   1.0000   1.0000   1.0000   1.0000   1.0000   1.0000
     1.0000   1.0000   1.0000   1.0000   1.0000   1.0000   1.0000   1.0000
     1.0000   1.0000   1.0000   1.0000   1.0000   1.0000   1.0000   1.0000
     1.0000   1.0000   1.0000   1.0000   1.0000   1.0000   1.0000   1.0000
     1.0000   1.0000   1.0000   1.0000   1.0000   1.0000   1.0000   1.0000
     1.0000   1.0000   1.0000   1.0000   1.0000   1.0000   1.0000   1.0000
     1.0000   1.0000   1.0000   1.0000   1.0000   1.0000   1.0000   1.0000
     1.0000   1.0000   1.0000   1.0000   1.0000   1.0000   1.0000   1.0000
     1.0000   1.0000   1.0000   1.0000   1.0000   1.0000   1.0000   1.0000
     1.0000   1.0000   1.0000   1.0000   1.0000   1.0000   1.0000   1.0000
     1.0000   1.0000   1.0000   1.0000   1.0000   1.0000   1.0000   0.9113
     0.9112   0.0000   0.0000   0.0000   0.0000   0.0000   0.0000   0.0000
     0.0000   0.0000   0.0000   0.0000   0.0000   0.0000   0.0000   0.0000
     0.0000   0.0000   0.0000   0.0000   0.0000   0.0000   0.0000   0.0000
     0.0000   0.0000   0.0000   0.0000   0.0000   0.0000

     the Fermi energy is     2.9913 ev

!    total energy              =   -7790.25089599 Ry

     total all-electron energy =     -7790.250896 Ry
     estimated scf accuracy    <       0.00000045 Ry
     smearing contrib. (-TS)   =      -0.00732138 Ry
     internal energy E=F+TS    =   -7790.24357461 Ry

     The total energy is F=E-TS. E is the sum of the following terms:
     one-electron contribution =  -60740.48319246 Ry
     hartree contribution      =   29503.11489784 Ry
     xc contribution           =    -505.61157581 Ry
     ewald contribution        =   24669.10783065 Ry
     Dispersion Correction     =      -0.34825439 Ry
     one-center paw contrib.   =    -716.02328044 Ry
      -> PAW hartree energy AE =     328.82426199 Ry
      -> PAW hartree energy PS =    -270.02775123 Ry
      -> PAW xc energy AE      =    -134.20502694 Ry
      -> PAW xc energy PS      =      30.65148699 Ry
      -> total E_H with PAW    =   29561.91140860 Ry
      -> total E_XC with PAW   =    -609.16511575 Ry

     convergence has been achieved in  31 iterations

     Writing all to output data dir ./Cuslab.save/

     General routines

     Parallel routines

     PAW routines

   This run was terminated on:  16: 7: 7  15Jul2022

   JOB DONE.