     Program PHONON v.7.0 starts on 16Jul2022 at 10:53:24

     R & G space division:  proc/nbgrp/npool/nimage =      64

     Waiting for input...
     Reading input from standard input
      Title line not specified: using 'default'.

     Reading xml data from directory:

     ./Cuslab1.save/
     Message from routine read_pp_mesh:
     mismatch in mesh size, discarding the one in header

     IMPORTANT: XC functional enforced from input :
     Exchange-correlation= PBE
                           (   1   4   3   4   0   0   0)
     Any further DFT definition will be discarded
     Please, verify this is what you really want

     Using Slab Decomposition

     Check: negative core charge=   -0.000003

     negative rho (up, down):  8.349E-03 0.000E+00
     Reading collected, re-writing distributed wavefunctions

     Dynamical matrices for ( 1, 1, 1)  uniform grid of q-points
     (   1 q-points):
       N         xq(1)         xq(2)         xq(3)
       1   0.000000000   0.000000000   0.000000000

     Calculation of q =    0.0000000   0.0000000   0.0000000

     default

     bravais-lattice index     =           14
     lattice parameter (alat)  =       9.6476  a.u.
     unit-cell volume          =    3998.9451 (a.u.)^3
     number of atoms/cell      =           16
     number of atomic types    =            1
     kinetic-energy cut-off    =      80.0000  Ry
     charge density cut-off    =     320.0000  Ry
     convergence threshold     =      1.0E-12
     beta                      =       0.3000
     number of iterations used =            4
     Exchange-correlation= PBE
                           (   1   4   3   4   0   0   0)

     celldm(1)=    9.64764  celldm(2)=    1.00000  celldm(3)=    5.14223
     celldm(4)=    0.00000  celldm(5)=    0.00000  celldm(6)=    0.50000

     crystal axes: (cart. coord. in units of alat)
               a(1) = (  1.0000  0.0000  0.0000 )
               a(2) = (  0.5000  0.8660  0.0000 )
               a(3) = (  0.0000  0.0000  5.1422 )

     reciprocal axes: (cart. coord. in units 2 pi/alat)
               b(1) = (  1.0000 -0.5774  0.0000 )
               b(2) = (  0.0000  1.1547  0.0000 )
               b(3) = (  0.0000  0.0000  0.1945 )

     Atoms inside the unit cell:

     Cartesian axes

     site n.  atom      mass           positions (alat units)
        1     Cu  63.5460   tau(    1) = (    0.00000    0.00000    0.00000  )
        2     Cu  63.5460   tau(    2) = (    0.50000    0.00000    0.00000  )
        3     Cu  63.5460   tau(    3) = (    0.25000    0.43301    0.00000  )
        4     Cu  63.5460   tau(    4) = (    0.75000    0.43301    0.00000  )
        5     Cu  63.5460   tau(    5) = (    0.25000    0.14434    0.40825  )
        6     Cu  63.5460   tau(    6) = (    0.75000    0.14434    0.40825  )
        7     Cu  63.5460   tau(    7) = (    0.50000    0.57735    0.40825  )
        8     Cu  63.5460   tau(    8) = (    1.00000    0.57735    0.40825  )
        9     Cu  63.5460   tau(    9) = (    0.00000    0.28868    0.81650  )
       10     Cu  63.5460   tau(   10) = (    0.50000    0.28868    0.81650  )
       11     Cu  63.5460   tau(   11) = (    0.25000    0.72169    0.81650  )
       12     Cu  63.5460   tau(   12) = (    0.75000    0.72169    0.81650  )
       13     Cu  63.5460   tau(   13) = (    0.00000    0.00000    1.22475  )
       14     Cu  63.5460   tau(   14) = (    0.50000    0.00000    1.22475  )
       15     Cu  63.5460   tau(   15) = (    0.25000    0.43301    1.22475  )
       16     Cu  63.5460   tau(   16) = (    0.75000    0.43301    1.22475  )

     Computing dynamical matrix for
                    q = (   0.0000000   0.0000000   0.0000000 )

      7 Sym.Ops. (with q -> -q+G )

     G cutoff =  754.4530  (   6042 G-vectors)     FFT grid: ( 60, 60,288)

     number of k points=     4  Gaussian smearing, width (Ry)=  0.0100

     PseudoPot. # 1 for Cu read from file:
     /mnt/ceph/glen3534/Prep/Adsorption/Cu/Cu.save/Cu.upf
     MD5 check sum: 69e544ce53ba1f79758756dbb2f8fbdd
     Pseudo is Projector augmented-wave + core cor, Zval = 19.0
     Generated using ATOMPAW code
     Shape of augmentation charge: SINC**2
     Using radial grid of 2342 points,  6 beta functions with:
                l(1) =   0
                l(2) =   0
                l(3) =   1
                l(4) =   1
                l(5) =   2
                l(6) =   2
     Q(r) pseudized with 0 coefficients

     Mode symmetry, C_3v (3m)   point group:

     Atomic displacements:
     There are   32 irreducible representations

     Representation     1      1 modes -  To be done

[...]

     Representation    32      2 modes -  To be done

     Alpha used in Ewald sum =   2.6000

     Parameters for Dispersion (Grimme-D2) Correction:
       atom      VdW radius       C_6

        Cu         2.952        374.666

     Calculating the D2 contribution to the dynamical matrix.
     D2 energy =       -0.34825439 Ry
     Done.

     negative rho (up, down):  8.349E-03 0.000E+00

     Representation #   1 mode #   1

     Self-consistent Calculation

     Pert. #  1: Fermi energy shift (Ry) =     1.4469E-01     2.1176E-22

      thresh= 1.000E-02 alpha_mix =  0.300 |ddv_scf|^2 =  2.451E-06

[...]

     End of self-consistent calculation

     Convergence has been achieved

[...]

     Representation #  16 mode #  16

[...]

     Representation #  17 modes #  17  18

[...]

     Representation #  32 modes #  47  48

     Self-consistent Calculation

[...]

     Pert. #  1: Fermi energy shift (Ry) =    -4.5175E-21     0.0000E+00
     Pert. #  2: Fermi energy shift (Ry) =     0.0000E+00     0.0000E+00

      thresh= 1.269E-07 alpha_mix =  0.100 |ddv_scf|^2 =  2.424E-13

     End of self-consistent calculation

     Convergence has been achieved

     Number of q in the star =    1
     List of q in the star:
          1   0.000000000   0.000000000   0.000000000

     Diagonalizing the dynamical matrix

     q = (    0.000000000   0.000000000   0.000000000 )

     freq (    1) =      -9.554050 [THz] =    -318.688803 [cm-1]
     freq (    2) =      -9.554050 [THz] =    -318.688803 [cm-1]
     freq (    3) =      -8.502760 [THz] =    -283.621542 [cm-1]
     freq (    4) =      -8.502760 [THz] =    -283.621542 [cm-1]
     freq (    5) =      -8.189566 [THz] =    -273.174513 [cm-1]
     freq (    6) =      -8.189566 [THz] =    -273.174513 [cm-1]
     freq (    7) =      -6.872881 [THz] =    -229.254633 [cm-1]
     freq (    8) =      -6.872881 [THz] =    -229.254633 [cm-1]
     freq (    9) =      -5.660512 [THz] =    -188.814355 [cm-1]
     freq (   10) =      -5.660512 [THz] =    -188.814355 [cm-1]
     freq (   11) =      -4.834767 [THz] =    -161.270473 [cm-1]
     freq (   12) =      -4.834767 [THz] =    -161.270473 [cm-1]
     freq (   13) =      -4.254614 [THz] =    -141.918652 [cm-1]
     freq (   14) =      -4.254614 [THz] =    -141.918652 [cm-1]
     freq (   15) =      -4.073062 [THz] =    -135.862725 [cm-1]
     freq (   16) =      -4.073062 [THz] =    -135.862725 [cm-1]
     freq (   17) =      -3.240552 [THz] =    -108.093173 [cm-1]
     freq (   18) =      -2.539099 [THz] =     -84.695236 [cm-1]
     freq (   19) =      -2.539099 [THz] =     -84.695236 [cm-1]
     freq (   20) =       2.695310 [THz] =      89.905853 [cm-1]
     freq (   21) =       2.695310 [THz] =      89.905853 [cm-1]
     freq (   22) =       2.713083 [THz] =      90.498717 [cm-1]
     freq (   23) =       4.107125 [THz] =     136.998933 [cm-1]
     freq (   24) =       4.107125 [THz] =     136.998933 [cm-1]
     freq (   25) =       4.307365 [THz] =     143.678242 [cm-1]
     freq (   26) =       4.307365 [THz] =     143.678242 [cm-1]
     freq (   27) =       4.849797 [THz] =     161.771819 [cm-1]
     freq (   28) =       5.112671 [THz] =     170.540349 [cm-1]
     freq (   29) =       5.307232 [THz] =     177.030204 [cm-1]
     freq (   30) =       5.421217 [THz] =     180.832322 [cm-1]
     freq (   31) =       6.491225 [THz] =     216.523954 [cm-1]
     freq (   32) =       6.939684 [THz] =     231.482934 [cm-1]
     freq (   33) =       7.047087 [THz] =     235.065521 [cm-1]
     freq (   34) =       7.087741 [THz] =     236.421603 [cm-1]
     freq (   35) =       7.087741 [THz] =     236.421603 [cm-1]
     freq (   36) =       7.649351 [THz] =     255.154875 [cm-1]
     freq (   37) =       8.208689 [THz] =     273.812388 [cm-1]
     freq (   38) =       8.620722 [THz] =     287.556335 [cm-1]
     freq (   39) =       8.895831 [THz] =     296.732997 [cm-1]
     freq (   40) =       9.521248 [THz] =     317.594651 [cm-1]
     freq (   41) =       9.678451 [THz] =     322.838374 [cm-1]
     freq (   42) =      11.449593 [THz] =     381.917300 [cm-1]
     freq (   43) =      11.449593 [THz] =     381.917300 [cm-1]
     freq (   44) =      11.520595 [THz] =     384.285698 [cm-1]
     freq (   45) =      13.275020 [THz] =     442.807001 [cm-1]
     freq (   46) =      13.275020 [THz] =     442.807001 [cm-1]
     freq (   47) =      14.231490 [THz] =     474.711393 [cm-1]
     freq (   48) =      14.231490 [THz] =     474.711393 [cm-1]

     Mode symmetry, C_3v (3m)   point group:

     freq (   1-   2) =       -318.7  [cm-1]   --> E    L_3        I+R
     freq (   3-   4) =       -283.6  [cm-1]   --> E    L_3        I+R
     freq (   5-   6) =       -273.2  [cm-1]   --> E    L_3        I+R
     freq (   7-   8) =       -229.3  [cm-1]   --> E    L_3        I+R
     freq (   9-  10) =       -188.8  [cm-1]   --> E    L_3        I+R
     freq (  11-  12) =       -161.3  [cm-1]   --> E    L_3        I+R
     freq (  13-  14) =       -141.9  [cm-1]   --> E    L_3        I+R
     freq (  15-  16) =       -135.9  [cm-1]   --> E    L_3        I+R
     freq (  17-  17) =       -108.1  [cm-1]   --> A_1  L_1        I+R
     freq (  18-  19) =        -84.7  [cm-1]   --> E    L_3        I+R
     freq (  20-  21) =         89.9  [cm-1]   --> E    L_3        I+R
     freq (  22-  22) =         90.5  [cm-1]   --> A_1  L_1        I+R
     freq (  23-  24) =        137.0  [cm-1]   --> E    L_3        I+R
     freq (  25-  26) =        143.7  [cm-1]   --> E    L_3        I+R
     freq (  27-  27) =        161.8  [cm-1]   --> A_2  L_2
     freq (  28-  28) =        170.5  [cm-1]   --> A_1  L_1        I+R
     freq (  29-  29) =        177.0  [cm-1]   --> A_1  L_1        I+R
     freq (  30-  30) =        180.8  [cm-1]   --> A_2  L_2
     freq (  31-  31) =        216.5  [cm-1]   --> A_1  L_1        I+R
     freq (  32-  32) =        231.5  [cm-1]   --> A_2  L_2
     freq (  33-  33) =        235.1  [cm-1]   --> A_1  L_1        I+R
     freq (  34-  35) =        236.4  [cm-1]   --> E    L_3        I+R
     freq (  36-  36) =        255.2  [cm-1]   --> A_2  L_2
     freq (  37-  37) =        273.8  [cm-1]   --> A_1  L_1        I+R
     freq (  38-  38) =        287.6  [cm-1]   --> A_1  L_1        I+R
     freq (  39-  39) =        296.7  [cm-1]   --> A_1  L_1        I+R
     freq (  40-  40) =        317.6  [cm-1]   --> A_1  L_1        I+R
     freq (  41-  41) =        322.8  [cm-1]   --> A_1  L_1        I+R
     freq (  42-  43) =        381.9  [cm-1]   --> E    L_3        I+R
     freq (  44-  44) =        384.3  [cm-1]   --> A_1  L_1        I+R
     freq (  45-  46) =        442.8  [cm-1]   --> E    L_3        I+R
     freq (  47-  48) =        474.7  [cm-1]   --> E    L_3        I+R

     INITIALIZATION:

     DYNAMICAL MATRIX:

      General routines

   This run was terminated on:   3: 4:46  20Jul2022

   JOB DONE.