     Program PWSCF v.7.0 starts on  8Jul2022 at  8:45:19

     R & G space division:  proc/nbgrp/npool/nimage =      24

     Waiting for input...
     Reading input from standard input

     Current dimensions of program PWSCF are:
     Max number of different atomic species (ntypx) = 10
     Max number of k-points (npk) =  40000
     Max angular momentum in pseudopotentials (lmaxx) =  4
     Message from routine read_pp_mesh:
     mismatch in mesh size, discarding the one in header

     Parameters for Dispersion (Grimme-D2) Correction:
       atom      VdW radius       C_6

        Cu         2.952        374.666
     Found identity + ( -0.5000  0.0000  0.0000) symmetry
     This is a supercell, fractional translations are disabled

     Subspace diagonalization in iterative solution of the eigenvalue problem:
     a serial algorithm will be used

     Using Slab Decomposition

     bravais-lattice index     =           14
     lattice parameter (alat)  =       9.6476  a.u.
     unit-cell volume          =    3998.9451 (a.u.)^3
     number of atoms/cell      =           16
     number of atomic types    =            1
     number of electrons       =       304.00
     number of Kohn-Sham states=          182
     kinetic-energy cutoff     =      80.0000  Ry
     charge density cutoff     =     320.0000  Ry
     scf convergence threshold =      1.0E-06
     mixing beta               =       0.7000
     number of iterations used =            8  plain     mixing
     Exchange-correlation= SLA PW PBX PBC
                           (   1   4   3   4   0   0   0)

     celldm(1)=   9.647638  celldm(2)=   1.000000  celldm(3)=   5.142234
     celldm(4)=   0.000000  celldm(5)=   0.000000  celldm(6)=   0.500000

     crystal axes: (cart. coord. in units of alat)
               a(1) = (   1.000000   0.000000   0.000000 )
               a(2) = (   0.500000   0.866025   0.000000 )
               a(3) = (   0.000000   0.000000   5.142234 )

     reciprocal axes: (cart. coord. in units 2 pi/alat)
               b(1) = (  1.000000 -0.577350  0.000000 )
               b(2) = (  0.000000  1.154701  0.000000 )
               b(3) = (  0.000000  0.000000  0.194468 )

     PseudoPot. # 1 for Cu read from file:
     /mnt/ceph/glen3534/Prep/Adsorption/Cu/Cu.save/Cu.upf
     MD5 check sum: 69e544ce53ba1f79758756dbb2f8fbdd
     Pseudo is Projector augmented-wave + core cor, Zval = 19.0
     Generated using ATOMPAW code
     Shape of augmentation charge: SINC**2
     Using radial grid of 2342 points,  6 beta functions with:
                l(1) =   0
                l(2) =   0
                l(3) =   1
                l(4) =   1
                l(5) =   2
                l(6) =   2
     Q(r) pseudized with 0 coefficients

     atomic species   valence    mass     pseudopotential
        Cu            19.00    63.54600     Cu( 1.00)

      6 Sym. Ops. (no inversion) found

                                    s                        frac. trans.

      isym =  1     identity

 cryst.   s( 1) = (     1          0          0      )
                  (     0          1          0      )
                  (     0          0          1      )

 cart.    s( 1) = (  1.0000000  0.0000000  0.0000000 )
                  (  0.0000000  1.0000000  0.0000000 )
                  (  0.0000000  0.0000000  1.0000000 )

      isym =  2     120 deg rotation - cryst. axis [0,0,1]

[...]

      isym =  3     120 deg rotation - cryst. axis [0,0,-1]

[...]

      isym =  4     inv. 180 deg rotation - cart. axis [1,0,0]

[...]

      isym =  5     inv. 180 deg rotation - cryst. axis [0,1,0]

[...]

      isym =  6     inv. 180 deg rotation - cryst. axis [1,1,0]

 cryst.   s( 6) = (     1         -1          0      )
                  (     0         -1          0      )
                  (     0          0          1      )

 cart.    s( 6) = (  0.5000000 -0.8660254  0.0000000 )
                  ( -0.8660254 -0.5000000  0.0000000 )
                  (  0.0000000  0.0000000  1.0000000 )

     point group C_3v (3m)
     there are  3 classes
     the character table:

       E     2C3   3s_v
A_1    1.00  1.00  1.00
A_2    1.00  1.00 -1.00
E      2.00 -1.00  0.00

     the symmetry operations in each class and the name of the first element:

     E        1
          identity
     2C3      2    3
          120 deg rotation - cryst. axis [0,0,1]
     3s_v     4    5    6
          inv. 180 deg rotation - cart. axis [1,0,0]

   Cartesian axes

     site n.     atom                  positions (alat units)
         1           Cu  tau(   1) = (   0.0000000   0.0000000   0.0000000  )
         2           Cu  tau(   2) = (   0.5000001   0.0000000   0.0000000  )
         3           Cu  tau(   3) = (   0.2500000   0.4330128   0.0000000  )
         4           Cu  tau(   4) = (   0.7500001   0.4330128   0.0000000  )
         5           Cu  tau(   5) = (   0.2500000   0.1443376   0.4082484  )
         6           Cu  tau(   6) = (   0.7500001   0.1443376   0.4082484  )
         7           Cu  tau(   7) = (   0.5000001   0.5773504   0.4082484  )
         8           Cu  tau(   8) = (   1.0000002   0.5773504   0.4082484  )
         9           Cu  tau(   9) = (  -0.0000000   0.2886752   0.8164967  )
        10           Cu  tau(  10) = (   0.5000001   0.2886752   0.8164967  )
        11           Cu  tau(  11) = (   0.2500000   0.7216880   0.8164967  )
        12           Cu  tau(  12) = (   0.7500001   0.7216880   0.8164967  )
        13           Cu  tau(  13) = (   0.0000000   0.0000000   1.2247451  )
        14           Cu  tau(  14) = (   0.5000001   0.0000000   1.2247451  )
        15           Cu  tau(  15) = (   0.2500000   0.4330128   1.2247451  )
        16           Cu  tau(  16) = (   0.7500001   0.4330128   1.2247451  )

   Crystallographic axes

     site n.     atom                  positions (cryst. coord.)
         1           Cu  tau(   1) = (  0.0000000  0.0000000  0.0000000  )
         2           Cu  tau(   2) = (  0.5000001  0.0000000  0.0000000  )
         3           Cu  tau(   3) = ( -0.0000000  0.5000001  0.0000000  )
         4           Cu  tau(   4) = (  0.5000001  0.5000001  0.0000000  )
         5           Cu  tau(   5) = (  0.1666667  0.1666667  0.0793912  )
         6           Cu  tau(   6) = (  0.6666668  0.1666667  0.0793912  )
         7           Cu  tau(   7) = (  0.1666667  0.6666668  0.0793912  )
         8           Cu  tau(   8) = (  0.6666668  0.6666668  0.0793912  )
         9           Cu  tau(   9) = ( -0.1666667  0.3333334  0.1587825  )
        10           Cu  tau(  10) = (  0.3333334  0.3333334  0.1587825  )
        11           Cu  tau(  11) = ( -0.1666667  0.8333335  0.1587825  )
        12           Cu  tau(  12) = (  0.3333334  0.8333335  0.1587825  )
        13           Cu  tau(  13) = (  0.0000000  0.0000000  0.2381737  )
        14           Cu  tau(  14) = (  0.5000001  0.0000000  0.2381737  )
        15           Cu  tau(  15) = ( -0.0000000  0.5000001  0.2381737  )
        16           Cu  tau(  16) = (  0.5000001  0.5000001  0.2381737  )

     number of k points=     4  Gaussian smearing, width (Ry)=  0.0100
                       cart. coord. in units 2pi/alat
        k(    1) = (   0.0000000   0.0000000   0.0000000), wk =   0.1250000
        k(    2) = (   0.0000000   0.2886751   0.0000000), wk =   0.7500000
        k(    3) = (   0.0000000  -0.5773503   0.0000000), wk =   0.3750000
        k(    4) = (   0.2500000  -0.7216878   0.0000000), wk =   0.7500000

                       cryst. coord.
        k(    1) = (   0.0000000   0.0000000   0.0000000), wk =   0.1250000
        k(    2) = (   0.0000000   0.2500000   0.0000000), wk =   0.7500000
        k(    3) = (   0.0000000  -0.5000000   0.0000000), wk =   0.3750000
        k(    4) = (   0.2500000  -0.5000000   0.0000000), wk =   0.7500000

     Check: negative core charge=   -0.000003

     Initial potential from superposition of free atoms

     starting charge     303.9947, renormalised to     304.0000

     negative rho (up, down):  8.096E-03 0.000E+00
     Starting wfcs are  288 randomized atomic wfcs
     Checking if some PAW data can be deallocated...

     Self-consistent Calculation

     iteration #  1     ecut=    80.00 Ry     beta= 0.70
     Davidson diagonalization with overlap

     c_bands:  1 eigenvalues not converged
     ethr =  1.00E-02,  avg # of iterations = 14.5

     negative rho (up, down):  2.151E-03 0.000E+00

     total energy              =   -7757.95858260 Ry
     estimated scf accuracy    <      27.61615294 Ry

[...]

     ethr =  9.08E-03,  avg # of iterations = 10.8

[...]

     c_bands:  1 eigenvalues not converged
     c_bands:  2 eigenvalues not converged
     ethr =  6.73E-07,  avg # of iterations = 13.2

[...]

     total energy              =   -7790.25089622 Ry
     estimated scf accuracy    <       0.00000157 Ry

     iteration # 32     ecut=    80.00 Ry     beta= 0.70
     Davidson diagonalization with overlap

     ethr =  5.16E-10,  avg # of iterations =  2.0

     negative rho (up, down):  8.349E-03 0.000E+00

     End of self-consistent calculation

          k = 0.0000 0.0000 0.0000 ( 48435 PWs)   bands (ev):

  -109.5250-109.5179-109.5134-109.5133-109.5128-109.5110-109.5110-109.5105
  -109.3122-109.3104-109.3031-109.3026-109.3026-109.3012-109.3012-109.3004
   -66.9403 -66.9401 -66.9401 -66.9355 -66.9354 -66.9354 -66.9340 -66.8985
   -66.8985 -66.8982 -66.8841 -66.8841 -66.8836 -66.8804 -66.8769 -66.8766
   -66.8766 -66.8643 -66.8641 -66.8641 -66.8536 -66.8536 -66.8454 -66.8454
   -66.7627 -66.7627 -66.7624 -66.7612 -66.7608 -66.7608 -66.7027 -66.7027
   -66.7025 -66.7012 -66.7008 -66.7008 -66.6820 -66.6820 -66.6802 -66.6802
   -66.6188 -66.6169 -66.6109 -66.6105 -66.6105 -66.6091 -66.6091 -66.6083
    -5.8644  -4.6102  -2.9309  -2.0731  -1.7693  -1.7692  -1.7692  -1.6468
    -1.6466  -1.6466  -1.2529  -1.2528  -1.2528  -1.2113  -1.2112  -1.2112
    -1.1457  -1.1456  -1.1456  -0.7677  -0.7677  -0.7677  -0.1828  -0.1828
    -0.1828  -0.0018  -0.0006  -0.0006  -0.0006   0.0296   0.1133   0.1133
     0.1650   0.1650   0.2176   0.2178   0.2178   0.3088   0.3303   0.3303
     0.3692   0.3692   0.3693   0.3762   0.3762   0.6711   0.6712   0.6712
     0.6909   0.6909   0.6911   0.9252   0.9252   1.0541   1.0541   1.1714
     1.1714   1.1714   1.2331   1.2331   1.2332   1.3301   1.3301   1.4310
     1.4311   1.4311   1.4417   1.4417   1.4419   1.4766   1.4766   1.5035
     1.5037   1.5037   1.5647   1.5649   1.5649   1.6824   1.6824   1.6824
     1.6908   1.6909   1.6909   1.8442   2.8173   2.8307   2.8307   2.8307
     3.8251   3.8251   3.8251   4.3955   4.3955   4.3956   4.6022   4.6022
     4.6022   7.0947   7.0950   7.3737   7.3737   7.3737   7.7823   8.1107
     8.2137   8.2137   8.2137   9.1833   9.1834   9.1834   9.4500   9.5490
    10.3912  10.3912  10.3912  11.4244  11.7992  11.9729

     occupation numbers
     1.0000   1.0000   1.0000   1.0000   1.0000   1.0000   1.0000   1.0000
     1.0000   1.0000   1.0000   1.0000   1.0000   1.0000   1.0000   1.0000
     1.0000   1.0000   1.0000   1.0000   1.0000   1.0000   1.0000   1.0000
     1.0000   1.0000   1.0000   1.0000   1.0000   1.0000   1.0000   1.0000
     1.0000   1.0000   1.0000   1.0000   1.0000   1.0000   1.0000   1.0000
     1.0000   1.0000   1.0000   1.0000   1.0000   1.0000   1.0000   1.0000
     1.0000   1.0000   1.0000   1.0000   1.0000   1.0000   1.0000   1.0000
     1.0000   1.0000   1.0000   1.0000   1.0000   1.0000   1.0000   1.0000
     1.0000   1.0000   1.0000   1.0000   1.0000   1.0000   1.0000   1.0000
     1.0000   1.0000   1.0000   1.0000   1.0000   1.0000   1.0000   1.0000
     1.0000   1.0000   1.0000   1.0000   1.0000   1.0000   1.0000   1.0000
     1.0000   1.0000   1.0000   1.0000   1.0000   1.0000   1.0000   1.0000
     1.0000   1.0000   1.0000   1.0000   1.0000   1.0000   1.0000   1.0000
     1.0000   1.0000   1.0000   1.0000   1.0000   1.0000   1.0000   1.0000
     1.0000   1.0000   1.0000   1.0000   1.0000   1.0000   1.0000   1.0000
     1.0000   1.0000   1.0000   1.0000   1.0000   1.0000   1.0000   1.0000
     1.0000   1.0000   1.0000   1.0000   1.0000   1.0000   1.0000   1.0000
     1.0000   1.0000   1.0000   1.0000   1.0000   1.0000   1.0000   1.0000
     1.0000   1.0000   1.0000   1.0000   0.9645   0.9521   0.9521   0.9521
     0.0000   0.0000   0.0000   0.0000   0.0000   0.0000   0.0000   0.0000
     0.0000   0.0000   0.0000   0.0000   0.0000   0.0000   0.0000   0.0000
     0.0000   0.0000   0.0000   0.0000   0.0000   0.0000   0.0000   0.0000
     0.0000   0.0000   0.0000   0.0000   0.0000   0.0000

[...]

          k = 0.2500-0.7217 0.0000 ( 48288 PWs)   bands (ev):

  -109.5206-109.5165-109.5163-109.5149-109.5124-109.5122-109.5115-109.5105
  -109.3085-109.3067-109.3053-109.3050-109.3036-109.3030-109.3018-109.2999
   -66.9260 -66.9259 -66.9226 -66.9225 -66.9223 -66.9146 -66.9146 -66.9056
   -66.8986 -66.8985 -66.8968 -66.8923 -66.8848 -66.8824 -66.8794 -66.8792
   -66.8780 -66.8729 -66.8729 -66.8728 -66.8641 -66.8641 -66.8623 -66.8548
   -66.7486 -66.7469 -66.7386 -66.7385 -66.7368 -66.7368 -66.7274 -66.7257
   -66.7129 -66.7112 -66.7017 -66.7017 -66.6999 -66.6999 -66.6915 -66.6897
   -66.6155 -66.6137 -66.6128 -66.6124 -66.6111 -66.6105 -66.6097 -66.6079
    -4.4242  -3.2679  -2.8149  -2.8149  -2.0105  -2.0105  -1.7868  -1.2347
    -1.2347  -1.1942  -1.0910  -1.0727  -0.8680  -0.8679  -0.8409  -0.7968
    -0.6567  -0.6282  -0.6282  -0.5701  -0.5068  -0.5068  -0.4598  -0.4508
    -0.3600  -0.3600  -0.3485  -0.2703  -0.1392  -0.1392  -0.1240  -0.0876
     0.0111   0.0497   0.0773   0.1202   0.1202   0.1580   0.1581   0.2463
     0.2463   0.2491   0.2857   0.3041   0.3315   0.3316   0.4132   0.4373
     0.4764   0.4854   0.4854   0.5564   0.6621   0.6670   0.7027   0.7271
     0.7312   0.7313   0.8495   0.8497   0.8645   0.9589   0.9646   1.0235
     1.0237   1.0439   1.0923   1.1470   1.1471   1.2088   1.2182   1.2826
     1.3431   1.3432   1.3448   1.3449   1.3803   1.4170   1.4188   1.4672
     1.4672   1.4803   1.6188   1.6188   1.7394   1.7394   1.8576   2.8613
     2.8613   3.5337   5.0993   5.0994   5.3119   5.3441   5.7048   6.2982
     6.8516   7.5325   7.5326   8.2693   8.3673   8.5427   9.0306   9.2276
     9.3884   9.3983  10.0059  10.0060  10.0773  10.4616  10.4616  10.8574
    10.8603  11.0221  11.0349  11.0349  11.1699  11.1700

     occupation numbers
     1.0000   1.0000   1.0000   1.0000   1.0000   1.0000   1.0000   1.0000
     1.0000   1.0000   1.0000   1.0000   1.0000   1.0000   1.0000   1.0000
     1.0000   1.0000   1.0000   1.0000   1.0000   1.0000   1.0000   1.0000
     1.0000   1.0000   1.0000   1.0000   1.0000   1.0000   1.0000   1.0000
     1.0000   1.0000   1.0000   1.0000   1.0000   1.0000   1.0000   1.0000
     1.0000   1.0000   1.0000   1.0000   1.0000   1.0000   1.0000   1.0000
     1.0000   1.0000   1.0000   1.0000   1.0000   1.0000   1.0000   1.0000
     1.0000   1.0000   1.0000   1.0000   1.0000   1.0000   1.0000   1.0000
     1.0000   1.0000   1.0000   1.0000   1.0000   1.0000   1.0000   1.0000
     1.0000   1.0000   1.0000   1.0000   1.0000   1.0000   1.0000   1.0000
     1.0000   1.0000   1.0000   1.0000   1.0000   1.0000   1.0000   1.0000
     1.0000   1.0000   1.0000   1.0000   1.0000   1.0000   1.0000   1.0000
     1.0000   1.0000   1.0000   1.0000   1.0000   1.0000   1.0000   1.0000
     1.0000   1.0000   1.0000   1.0000   1.0000   1.0000   1.0000   1.0000
     1.0000   1.0000   1.0000   1.0000   1.0000   1.0000   1.0000   1.0000
     1.0000   1.0000   1.0000   1.0000   1.0000   1.0000   1.0000   1.0000
     1.0000   1.0000   1.0000   1.0000   1.0000   1.0000   1.0000   1.0000
     1.0000   1.0000   1.0000   1.0000   1.0000   1.0000   1.0000   1.0000
     1.0000   1.0000   1.0000   1.0000   1.0000   1.0000   1.0000   0.9111
     0.9111   0.0000   0.0000   0.0000   0.0000   0.0000   0.0000   0.0000
     0.0000   0.0000   0.0000   0.0000   0.0000   0.0000   0.0000   0.0000
     0.0000   0.0000   0.0000   0.0000   0.0000   0.0000   0.0000   0.0000
     0.0000   0.0000   0.0000   0.0000   0.0000   0.0000

     the Fermi energy is     2.9910 ev

!    total energy              =   -7790.25089558 Ry

     total all-electron energy =     -7790.250896 Ry
     estimated scf accuracy    <       0.00000078 Ry
     smearing contrib. (-TS)   =      -0.00732203 Ry
     internal energy E=F+TS    =   -7790.24357355 Ry

     The total energy is F=E-TS. E is the sum of the following terms:
     one-electron contribution =  -60740.52015060 Ry
     hartree contribution      =   29503.15443795 Ry
     xc contribution           =    -505.61129819 Ry
     ewald contribution        =   24669.10783065 Ry
     Dispersion Correction     =      -0.34825439 Ry
     one-center paw contrib.   =    -716.02613897 Ry
      -> PAW hartree energy AE =     328.84848352 Ry
      -> PAW hartree energy PS =    -270.04625107 Ry
      -> PAW xc energy AE      =    -134.20711938 Ry
      -> PAW xc energy PS      =      30.65293885 Ry
      -> total E_H with PAW    =   29561.95667040 Ry
      -> total E_XC with PAW   =    -609.16547872 Ry

     convergence has been achieved in  32 iterations

     Writing all to output data dir ./Cuslab.save/

     General routines

     Parallel routines

     PAW routines

   This run was terminated on:   9:18:40   8Jul2022

   JOB DONE.