     Program PWSCF v.7.0 starts on  6Jul2022 at 10: 7: 6

     R & G space division:  proc/nbgrp/npool/nimage =      24

     Waiting for input...
     Reading input from standard input

     Current dimensions of program PWSCF are:
     Max number of different atomic species (ntypx) = 10
     Max number of k-points (npk) =  40000
     Max angular momentum in pseudopotentials (lmaxx) =  4
     Message from routine read_pp_mesh:
     mismatch in mesh size, discarding the one in header
     Message from routine read_pp_mesh:
     mismatch in mesh size, discarding the one in header
     Message from routine read_pp_mesh:
     mismatch in mesh size, discarding the one in header

     Parameters for Dispersion (Grimme-D2) Correction:
       atom      VdW radius       C_6

        Cu         2.952        374.666
        C          2.744         60.710
        O          2.536         24.284

     Subspace diagonalization in iterative solution of the eigenvalue problem:
     a serial algorithm will be used

     Using Slab Decomposition

     bravais-lattice index     =           14
     lattice parameter (alat)  =       9.6476  a.u.
     unit-cell volume          =    3998.9451 (a.u.)^3
     number of atoms/cell      =           19
     number of atomic types    =            3
     number of electrons       =       320.00 (up: 160.00, down: 160.00)
     number of Kohn-Sham states=          192
     kinetic-energy cutoff     =      80.0000  Ry
     charge density cutoff     =     320.0000  Ry
     scf convergence threshold =      1.0E-06
     mixing beta               =       0.7000
     number of iterations used =            8  plain     mixing
     energy convergence thresh.=      1.0E-04
     force convergence thresh. =      1.0E-03
     Exchange-correlation= SLA PW PBX PBC
                           (   1   4   3   4   0   0   0)
     nstep                     =           50

     celldm(1)=   9.647638  celldm(2)=   1.000000  celldm(3)=   5.142234
     celldm(4)=   0.000000  celldm(5)=   0.000000  celldm(6)=   0.500000

     crystal axes: (cart. coord. in units of alat)
               a(1) = (   1.000000   0.000000   0.000000 )
               a(2) = (   0.500000   0.866025   0.000000 )
               a(3) = (   0.000000   0.000000   5.142234 )

     reciprocal axes: (cart. coord. in units 2 pi/alat)
               b(1) = (  1.000000 -0.577350  0.000000 )
               b(2) = (  0.000000  1.154701  0.000000 )
               b(3) = (  0.000000  0.000000  0.194468 )

     PseudoPot. # 1 for Cu read from file:
     /mnt/ceph/glen3534/Prep/Adsorption/CO2Cu/CO2Cu.save/Cu.upf
     MD5 check sum: 69e544ce53ba1f79758756dbb2f8fbdd
     Pseudo is Projector augmented-wave + core cor, Zval = 19.0
     Generated using ATOMPAW code
     Shape of augmentation charge: SINC**2
     Using radial grid of 2342 points,  6 beta functions with:
                l(1) =   0
                l(2) =   0
                l(3) =   1
                l(4) =   1
                l(5) =   2
                l(6) =   2
     Q(r) pseudized with 0 coefficients

     PseudoPot. # 2 for C  read from file:
     /mnt/ceph/glen3534/Prep/Adsorption/CO2Cu/CO2Cu.save/C.upf
     MD5 check sum: 97f42ffd943b0217b1b3b9cef70c8633
     Pseudo is Projector augmented-wave + core cor, Zval =  4.0
     Generated using ATOMPAW code
     Shape of augmentation charge: SINC**2
     Using radial grid of 2342 points,  4 beta functions with:
                l(1) =   0
                l(2) =   0
                l(3) =   1
                l(4) =   1
     Q(r) pseudized with 0 coefficients

     PseudoPot. # 3 for O  read from file:
     /mnt/ceph/glen3534/Prep/Adsorption/CO2Cu/CO2Cu.save/O.upf
     MD5 check sum: 45fbb1c0d1f8837f1e386a2947d3aa26
     Pseudo is Projector augmented-wave + core cor, Zval =  6.0
     Generated using ATOMPAW code
     Shape of augmentation charge: SINC**2
     Using radial grid of 2342 points,  4 beta functions with:
                l(1) =   0
                l(2) =   0
                l(3) =   1
                l(4) =   1
     Q(r) pseudized with 0 coefficients

     atomic species   valence    mass     pseudopotential
        Cu            19.00    63.54600     Cu( 1.00)
        C              4.00    12.01100     C ( 1.00)
        O              6.00    15.99900     O ( 1.00)

     Starting magnetic structure
     atomic species   magnetization
        Cu           0.000
        C            0.000
        O            0.000

      2 Sym. Ops. (no inversion) found

                                    s                        frac. trans.

      isym =  1     identity

 cryst.   s( 1) = (     1          0          0      )
                  (     0          1          0      )
                  (     0          0          1      )

 cart.    s( 1) = (  1.0000000  0.0000000  0.0000000 )
                  (  0.0000000  1.0000000  0.0000000 )
                  (  0.0000000  0.0000000  1.0000000 )

      isym =  2     inv. 180 deg rotation - cart. axis [1,0,0]

 cryst.   s( 2) = (    -1          0          0      )
                  (    -1          1          0      )
                  (     0          0          1      )

 cart.    s( 2) = ( -1.0000000  0.0000000  0.0000000 )
                  (  0.0000000  1.0000000  0.0000000 )
                  (  0.0000000  0.0000000  1.0000000 )

     point group C_s (m)
     there are  2 classes
     the character table:

       E     s
A'     1.00  1.00
A''    1.00 -1.00

     the symmetry operations in each class and the name of the first element:

     E        1
          identity
     s        2
          inv. 180 deg rotation - cart. axis [1,0,0]

   Cartesian axes

     site n.     atom                  positions (alat units)
         1           Cu  tau(   1) = (   0.0000000   0.0000000   0.0000000  )
         2           Cu  tau(   2) = (   0.5000001   0.0000000   0.0000000  )
         3           Cu  tau(   3) = (   0.2500000   0.4330128   0.0000000  )
         4           Cu  tau(   4) = (   0.7500001   0.4330128   0.0000000  )
         5           Cu  tau(   5) = (   0.2500000   0.1443376   0.4082484  )
         6           Cu  tau(   6) = (   0.7500001   0.1443376   0.4082484  )
         7           Cu  tau(   7) = (   0.5000001   0.5773504   0.4082484  )
         8           Cu  tau(   8) = (   1.0000002   0.5773504   0.4082484  )
         9           Cu  tau(   9) = (  -0.0000000   0.2886752   0.8164967  )
        10           Cu  tau(  10) = (   0.5000001   0.2886752   0.8164967  )
        11           Cu  tau(  11) = (   0.2500000   0.7216880   0.8164967  )
        12           Cu  tau(  12) = (   0.7500001   0.7216880   0.8164967  )
        13           Cu  tau(  13) = (   0.0000000   0.0000000   1.2247451  )
        14           Cu  tau(  14) = (   0.5000001   0.0000000   1.2247451  )
        15           Cu  tau(  15) = (   0.2500000   0.4330128   1.2247451  )
        16           Cu  tau(  16) = (   0.7500001   0.4330128   1.2247451  )
        17           O   tau(  17) = (  -0.2293083   0.0000000   1.8123686  )
        18           C   tau(  18) = (   0.0000000   0.0000000   1.8123686  )
        19           O   tau(  19) = (   0.2293083   0.0000000   1.8123686  )

   Crystallographic axes

     site n.     atom                  positions (cryst. coord.)
         1           Cu  tau(   1) = (  0.0000000  0.0000000  0.0000000  )
         2           Cu  tau(   2) = (  0.5000001  0.0000000  0.0000000  )
         3           Cu  tau(   3) = ( -0.0000000  0.5000001  0.0000000  )
         4           Cu  tau(   4) = (  0.5000001  0.5000001  0.0000000  )
         5           Cu  tau(   5) = (  0.1666667  0.1666667  0.0793912  )
         6           Cu  tau(   6) = (  0.6666668  0.1666667  0.0793912  )
         7           Cu  tau(   7) = (  0.1666667  0.6666668  0.0793912  )
         8           Cu  tau(   8) = (  0.6666668  0.6666668  0.0793912  )
         9           Cu  tau(   9) = ( -0.1666667  0.3333334  0.1587825  )
        10           Cu  tau(  10) = (  0.3333334  0.3333334  0.1587825  )
        11           Cu  tau(  11) = ( -0.1666667  0.8333335  0.1587825  )
        12           Cu  tau(  12) = (  0.3333334  0.8333335  0.1587825  )
        13           Cu  tau(  13) = (  0.0000000  0.0000000  0.2381737  )
        14           Cu  tau(  14) = (  0.5000001  0.0000000  0.2381737  )
        15           Cu  tau(  15) = ( -0.0000000  0.5000001  0.2381737  )
        16           Cu  tau(  16) = (  0.5000001  0.5000001  0.2381737  )
        17           O   tau(  17) = ( -0.2293083  0.0000000  0.3524477  )
        18           C   tau(  18) = (  0.0000000  0.0000000  0.3524477  )
        19           O   tau(  19) = (  0.2293083  0.0000000  0.3524477  )

     number of k points=     7  Gaussian smearing, width (Ry)=  0.0100
                       cart. coord. in units 2pi/alat
        k(    1) = (   0.0000000   0.0000000   0.0000000), wk =   0.0625000
        k(    2) = (   0.0000000   0.2886751   0.0000000), wk =   0.1250000
        k(    3) = (   0.0000000  -0.5773503   0.0000000), wk =   0.0625000
        k(    4) = (   0.2500000  -0.7216878   0.0000000), wk =   0.2500000
        k(    5) = (  -0.2500000   0.1443376   0.0000000), wk =   0.2500000
        k(    6) = (   0.5000000  -0.2886751   0.0000000), wk =   0.1250000
        k(    7) = (  -0.5000000  -0.5773503   0.0000000), wk =   0.1250000

                       cryst. coord.
        k(    1) = (   0.0000000   0.0000000   0.0000000), wk =   0.0625000
        k(    2) = (   0.0000000   0.2500000   0.0000000), wk =   0.1250000
        k(    3) = (   0.0000000  -0.5000000   0.0000000), wk =   0.0625000
        k(    4) = (   0.2500000  -0.5000000   0.0000000), wk =   0.2500000
        k(    5) = (  -0.2500000   0.0000000   0.0000000), wk =   0.2500000
        k(    6) = (   0.5000000   0.0000000   0.0000000), wk =   0.1250000
        k(    7) = (  -0.5000000  -0.7500000   0.0000000), wk =   0.1250000

     Check: negative core charge=   -0.000009
     Generating pointlists ...
     new r_m :   0.2062 (alat units)  1.9898 (a.u.) for type    1
     new r_m :   0.0946 (alat units)  0.9126 (a.u.) for type    2
     new r_m :   0.0946 (alat units)  0.9126 (a.u.) for type    3

     Initial potential from superposition of free atoms

     starting charge     319.9947, renormalised to     320.0000

     negative rho (up, down):  3.270E-03 3.270E-03
     Starting wfcs are  312 randomized atomic wfcs
     Checking if some PAW data can be deallocated...

     Self-consistent Calculation

     iteration #  1     ecut=    80.00 Ry     beta= 0.70
     Davidson diagonalization with overlap

     ethr =  1.00E-02,  avg # of iterations = 13.6

     negative rho (up, down):  7.391E-04 8.309E-04

     total energy              =   -7810.63758378 Ry
     estimated scf accuracy    <      71.13096230 Ry

     total magnetization       =     0.00 Bohr mag/cell
     absolute magnetization    =     1.82 Bohr mag/cell

[...]

     c_bands:  1 eigenvalues not converged
     c_bands:  2 eigenvalues not converged
     c_bands:  3 eigenvalues not converged
     c_bands:  1 eigenvalues not converged
[...]
     1.0000   1.0000   1.0000   1.0000   1.0000   1.0000   1.0000   1.0000
     1.0000   1.0000   1.0000   1.0000   1.0000   1.0000   1.0000   1.0000
     1.0000   1.0000   1.0000   1.0000   1.0000   1.0000   1.0000   1.0000
     1.0000   1.0000   1.0000   1.0000   1.0000   1.0000   1.0000   1.0000
     1.0000   1.0000   1.0000   1.0000   1.0000   1.0000   1.0000   1.0000
     1.0000   1.0000   1.0000   1.0000   1.0000   1.0000   1.0000   1.0000
     1.0000   1.0000   1.0000   1.0000   1.0000   1.0000   1.0000   1.0000
     1.0000   1.0000   1.0000   1.0000   1.0000   1.0000   1.0000   1.0000
     1.0000   1.0000   1.0000   1.0000   1.0000   1.0000   1.0000   1.0000
     1.0000   1.0000   1.0000   1.0000   1.0000   1.0000   1.0000   1.0000
     1.0000   1.0000   1.0000   1.0000   1.0000   1.0000   1.0000   1.0000
     1.0000   1.0000   1.0000   1.0000   1.0000   1.0000   1.0000   1.0000
     1.0000   1.0000   1.0000   1.0000   1.0000   1.0000   1.0000   1.0000
     1.0000   1.0000   1.0000   1.0000   1.0000   1.0000   1.0000   1.0000
     1.0000   1.0000   1.0000   1.0000   1.0000   1.0000   1.0000   0.8774
     0.8388   0.0000   0.0000   0.0000   0.0000   0.0000   0.0000   0.0000
     0.0000   0.0000   0.0000   0.0000   0.0000   0.0000   0.0000   0.0000
     0.0000   0.0000   0.0000   0.0000   0.0000   0.0000   0.0000   0.0000
     0.0000   0.0000   0.0000   0.0000   0.0000   0.0000   0.0000   0.0000

     the spin up/dw Fermi energies are     3.5382    3.5382 ev

!    total energy              =   -7892.05101183 Ry

     total all-electron energy =     -7892.051012 Ry
     estimated scf accuracy    <          7.3E-09 Ry
     smearing contrib. (-TS)   =      -0.00755916 Ry
     internal energy E=F+TS    =   -7892.04345267 Ry

     The total energy is F=E-TS. E is the sum of the following terms:
     one-electron contribution =  -61229.29575428 Ry
     hartree contribution      =   29761.04743613 Ry
     xc contribution           =    -524.01061484 Ry
     ewald contribution        =   24842.95858148 Ry
     Dispersion Correction     =      -0.37287355 Ry
     one-center paw contrib.   =    -742.37022761 Ry
      -> PAW hartree energy AE =     328.84745700 Ry
      -> PAW hartree energy PS =    -270.04751207 Ry
      -> PAW xc energy AE      =    -134.20681597 Ry
      -> PAW xc energy PS      =      30.65310435 Ry
      -> total E_H with PAW    =   29819.84738106 Ry
      -> total E_XC with PAW   =    -627.56432646 Ry

     total magnetization       =    -0.00 Bohr mag/cell
     absolute magnetization    =     0.00 Bohr mag/cell

     convergence has been achieved in  12 iterations

     negative rho (up, down):  3.764E-03 3.764E-03

     Forces acting on atoms (cartesian axes, Ry/au):

     atom    1 type  1   force =     0.00000000    0.00005414    0.00183932
     atom    2 type  1   force =     0.00000000   -0.00007308    0.00197733
     atom    3 type  1   force =    -0.00010853    0.00000523    0.00167183
     atom    4 type  1   force =     0.00010853    0.00000523    0.00167183
     atom    5 type  1   force =     0.00019328    0.00005251   -0.00251627
     atom    6 type  1   force =    -0.00019328    0.00005251   -0.00251627
     atom    7 type  1   force =     0.00000000   -0.00016223   -0.00197666
     atom    8 type  1   force =     0.00000000    0.00004166   -0.00352122
     atom    9 type  1   force =     0.00000000    0.00000182    0.00020214
     atom   10 type  1   force =     0.00000000    0.00005400    0.00031779
     atom   11 type  1   force =     0.00001095   -0.00001275    0.00010005
     atom   12 type  1   force =    -0.00001095   -0.00001275    0.00010005
     atom   13 type  1   force =     0.00000000    0.00003314    0.00063527
     atom   14 type  1   force =     0.00000000   -0.00009729    0.00020577
     atom   15 type  1   force =    -0.00010585    0.00002863    0.00041109
     atom   16 type  1   force =     0.00010585    0.00002863    0.00041109
     atom   17 type  3   force =    -0.00012491    0.00000017    0.00035118
     atom   18 type  2   force =     0.00000000    0.00000027    0.00028449
     atom   19 type  3   force =     0.00012491    0.00000017    0.00035118
     The non-local contrib.  to forces
     atom    1 type  1   force =     0.00000000   -0.00080574   -0.08658226
     atom    2 type  1   force =     0.00000000    0.00019065   -0.07633020
     atom    3 type  1   force =     0.00090260    0.00030489   -0.08402889
     atom    4 type  1   force =    -0.00090260    0.00030489   -0.08402889
     atom    5 type  1   force =    -0.00192549    0.00098370   -0.07465551
     atom    6 type  1   force =     0.00192549    0.00098370   -0.07465551
     atom    7 type  1   force =     0.00000000    0.00021285   -0.07113143
     atom    8 type  1   force =     0.00000000   -0.00198716   -0.07782233
     atom    9 type  1   force =     0.00000000    0.00032731    0.07699654
     atom   10 type  1   force =     0.00000000   -0.00236018    0.07534138
     atom   11 type  1   force =    -0.00239373    0.00125198    0.07561039
     atom   12 type  1   force =     0.00239373    0.00125198    0.07561039
     atom   13 type  1   force =     0.00000000    0.00019409    0.08986849
     atom   14 type  1   force =     0.00000000   -0.00024708    0.13343787
     atom   15 type  1   force =    -0.00036208   -0.00009714    0.08862847
     atom   16 type  1   force =     0.00036208   -0.00009714    0.08862847
     atom   17 type  3   force =     2.78003142    0.00016092    0.00139426
     atom   18 type  2   force =     0.00000000   -0.00002024   -0.00043965
     atom   19 type  3   force =    -2.78003142    0.00016092    0.00139426
     The ionic contribution  to forces
     atom    1 type  1   force =     0.00003172   -0.00466991 -474.91809357
     atom    2 type  1   force =    -0.00002728    0.00887959 -474.91595209
     atom    3 type  1   force =     0.01172972   -0.00212412 -474.91513443
     atom    4 type  1   force =    -0.01173180   -0.00209379 -474.91512353
     atom    5 type  1   force =     0.12677908    0.03456370 -176.66277932
     atom    6 type  1   force =    -0.12677943    0.03458877 -176.66278092
     atom    7 type  1   force =     0.00002496   -0.10893972 -176.52876833
     atom    8 type  1   force =    -0.00002964    0.03620625 -176.86776670
     atom    9 type  1   force =     0.00003064    0.18894299  125.58614120
     atom   10 type  1   force =    -0.00002423    0.05433096  127.36562046
     atom   11 type  1   force =    -0.11444435   -0.11985195  126.11129312
     atom   12 type  1   force =     0.11444013   -0.11982645  126.11129235
     atom   13 type  1   force =     0.00003304   -0.03335326  420.95963132
     atom   14 type  1   force =    -0.00002677    0.01847037  427.41090415
     atom   15 type  1   force =     0.04594630    0.00754639  427.13187197
     atom   16 type  1   force =    -0.04595254    0.00757720  427.13188302
     atom   17 type  3   force =   -10.15837421   -0.00029706  149.47559618
     atom   18 type  2   force =     0.00000030    0.00034707   99.62656999
     atom   19 type  3   force =    10.15837435   -0.00029704  149.47559514
     The local contribution  to forces
     atom    1 type  1   force =     0.00000000    0.00554932  475.00044820
     atom    2 type  1   force =    -0.00030970   -0.00909486  474.98828590
     atom    3 type  1   force =    -0.01302462    0.00178067  474.99484863
     atom    4 type  1   force =     0.01240523    0.00178067  474.99484865
     atom    5 type  1   force =    -0.12481178   -0.03545459  176.73163335
     atom    6 type  1   force =     0.12419622   -0.03545443  176.73163351
     atom    7 type  1   force =    -0.00030767    0.10841446  176.59468663
     atom    8 type  1   force =    -0.00061570   -0.03413603  176.93879286
     atom    9 type  1   force =     0.00000000   -0.18925021 -125.65964963
     atom   10 type  1   force =    -0.00030754   -0.05187484 -127.43767265
     atom   11 type  1   force =     0.11656796    0.11856069 -126.18359463
     atom   12 type  1   force =    -0.11718327    0.11856024 -126.18359546
     atom   13 type  1   force =     0.00000000    0.03314656 -421.04423201
     atom   14 type  1   force =    -0.00030943   -0.01821326 -427.54077157
     atom   15 type  1   force =    -0.04586133   -0.00747429 -427.21565326
     atom   16 type  1   force =     0.04524204   -0.00747453 -427.21565316
     atom   17 type  3   force =     7.37864272    0.00013951 -149.47355861
     atom   18 type  2   force =    -0.00000000   -0.00032003  -99.62280243
     atom   19 type  3   force =    -7.37864272    0.00013951 -149.47355861
     The core correction contribution to forces
     atom    1 type  1   force =     0.00000000    0.00000094    0.00009465
     atom    2 type  1   force =    -0.00000006    0.00000086    0.00009806
     atom    3 type  1   force =     0.00000003   -0.00000099    0.00009755
     atom    4 type  1   force =    -0.00000015   -0.00000099    0.00009755
     atom    5 type  1   force =    -0.00000008   -0.00000224   -0.00001445
     atom    6 type  1   force =    -0.00000004   -0.00000224   -0.00001445
     atom    7 type  1   force =    -0.00000006    0.00000155   -0.00001571
     atom    8 type  1   force =    -0.00000012    0.00000028   -0.00001540
     atom    9 type  1   force =     0.00000000    0.00000570    0.00001562
     atom   10 type  1   force =    -0.00000006   -0.00000232    0.00001374
     atom   11 type  1   force =    -0.00000160   -0.00000330    0.00000691
     atom   12 type  1   force =     0.00000148   -0.00000330    0.00000691
     atom   13 type  1   force =     0.00000000   -0.00000035   -0.00008037
     atom   14 type  1   force =    -0.00000006    0.00000175   -0.00010599
     atom   15 type  1   force =    -0.00000011    0.00000007   -0.00012485
     atom   16 type  1   force =    -0.00000001    0.00000007   -0.00012485
     atom   17 type  3   force =     0.00001547   -0.00000001   -0.00000043
     atom   18 type  2   force =     0.00000000   -0.00000453    0.00006106
     atom   19 type  3   force =    -0.00001547   -0.00000001   -0.00000043
     The Hubbard contrib.    to forces
     atom    1 type  1   force =     0.00000000    0.00000000    0.00000000
     atom    2 type  1   force =     0.00000000    0.00000000    0.00000000
     atom    3 type  1   force =     0.00000000    0.00000000    0.00000000
     atom    4 type  1   force =     0.00000000    0.00000000    0.00000000
     atom    5 type  1   force =     0.00000000    0.00000000    0.00000000
     atom    6 type  1   force =     0.00000000    0.00000000    0.00000000
     atom    7 type  1   force =     0.00000000    0.00000000    0.00000000
     atom    8 type  1   force =     0.00000000    0.00000000    0.00000000
     atom    9 type  1   force =     0.00000000    0.00000000    0.00000000
     atom   10 type  1   force =     0.00000000    0.00000000    0.00000000
     atom   11 type  1   force =     0.00000000    0.00000000    0.00000000
     atom   12 type  1   force =     0.00000000    0.00000000    0.00000000
     atom   13 type  1   force =     0.00000000    0.00000000    0.00000000
     atom   14 type  1   force =     0.00000000    0.00000000    0.00000000
     atom   15 type  1   force =     0.00000000    0.00000000    0.00000000
     atom   16 type  1   force =     0.00000000    0.00000000    0.00000000
     atom   17 type  3   force =     0.00000000    0.00000000    0.00000000
     atom   18 type  2   force =     0.00000000    0.00000000    0.00000000
     atom   19 type  3   force =     0.00000000    0.00000000    0.00000000
     The SCF correction term to forces
     atom    1 type  1   force =     0.00000000   -0.00000000   -0.00000000
     atom    2 type  1   force =    -0.00000000   -0.00000000   -0.00000000
     atom    3 type  1   force =    -0.00000000    0.00000000   -0.00000000
     atom    4 type  1   force =     0.00000000    0.00000000   -0.00000000
     atom    5 type  1   force =    -0.00000000   -0.00000000   -0.00000000
     atom    6 type  1   force =     0.00000000   -0.00000000   -0.00000000
     atom    7 type  1   force =    -0.00000000    0.00000000   -0.00000000
     atom    8 type  1   force =     0.00000000   -0.00000000   -0.00000000
     atom    9 type  1   force =    -0.00000000   -0.00006608   -0.00003799
     atom   10 type  1   force =     0.00000000    0.00001388    0.00019398
     atom   11 type  1   force =     0.00005921    0.00002120    0.00001395
     atom   12 type  1   force =    -0.00005921    0.00002120    0.00001395
     atom   13 type  1   force =    -0.00000000    0.00003996    0.00037397
     atom   14 type  1   force =    -0.00000000   -0.00009723    0.00039879
     atom   15 type  1   force =    -0.00012403    0.00003855    0.00025718
     atom   16 type  1   force =     0.00012403    0.00003855    0.00025718
     atom   17 type  3   force =    -0.00000081   -0.00000077   -0.00000197
     atom   18 type  2   force =     0.00000000   -0.00000000   -0.00000016
     atom   19 type  3   force =     0.00000081   -0.00000077   -0.00000197

     Dispersion contribution to forces:
     atom    1 type  1   force =    -0.00000001    0.00000143    0.00609690
     atom    2 type  1   force =     0.00000000   -0.00000279    0.00609581
     atom    3 type  1   force =    -0.00000366    0.00000068    0.00609573
     atom    4 type  1   force =     0.00000366    0.00000068    0.00609573
     atom    5 type  1   force =    -0.00002731   -0.00000391    0.00362276
     atom    6 type  1   force =     0.00002731   -0.00000391    0.00362276
     atom    7 type  1   force =    -0.00000000    0.00002259    0.00360890
     atom    8 type  1   force =     0.00000001   -0.00000835    0.00364625
     atom    9 type  1   force =    -0.00000001    0.00004444   -0.00317205
     atom   10 type  1   force =     0.00000000   -0.00005117   -0.00308757
     atom   11 type  1   force =    -0.00008636   -0.00000154   -0.00313735
     atom   12 type  1   force =     0.00008637   -0.00000155   -0.00313735
     atom   13 type  1   force =    -0.00000001    0.00000850   -0.00483457
     atom   14 type  1   force =     0.00000000   -0.00000949   -0.00356593
     atom   15 type  1   force =    -0.00001742    0.00000211   -0.00448244
     atom   16 type  1   force =     0.00001743    0.00000211   -0.00448244
     atom   17 type  3   force =    -0.00043942   -0.00000010   -0.00298619
     atom   18 type  2   force =    -0.00000000    0.00000034   -0.00301276
     atom   19 type  3   force =     0.00043942   -0.00000010   -0.00298619

     Total force =     0.001159     Total SCF correction =     0.000727

     Total Dispersion Force =     0.018550
     SCF correction compared to forces is large: reduce conv_thr to get better values
     Energy error            =      6.5E-06 Ry
     Gradient error          =      6.4E-04 Ry/Bohr

     bfgs converged in  19 scf cycles and  18 bfgs steps
     (criteria: energy <  1.0E-04 Ry, force <  1.0E-03 Ry/Bohr)

     End of BFGS Geometry Optimization

     Final energy             =   -7892.0510118349 Ry

     File ./CO2Cuontop.bfgs deleted, as requested
Begin final coordinates

ATOMIC_POSITIONS (angstrom)
Cu            0.0000000000        0.0000000000        0.0000000000    0   0   0
Cu            2.5526554801        0.0000000000        0.0000000000    0   0   0
Cu            1.2763277400        2.2106644929        0.0000000000    0   0   0
Cu            3.8289832201        2.2106644929        0.0000000000    0   0   0
Cu            1.2763277400        0.7368881643        2.0842344718    0   0   0
Cu            3.8289832201        0.7368881643        2.0842344718    0   0   0
Cu            2.5526554801        2.9475526571        2.0842344718    0   0   0
Cu            5.1053109602        2.9475526571        2.0842344718    0   0   0
Cu            0.0000000000        1.4758964290        4.1122904739
Cu            2.5526554801        1.4717557757        4.1242111767
Cu            1.2726064909        3.6837409937        4.1160828174
Cu            3.8327044693        3.6837409937        4.1160828174
Cu           -0.0000000000        0.0002617929        6.1534682233
Cu            2.5526554801       -0.0007419233        6.2046202654
Cu            1.2753978940        2.2106615085        6.1876452839
Cu            3.8299130661        2.2106615085        6.1876452839
O            -1.1703224245       -0.0000851129        9.3223460157
C            -0.0000000000       -0.0000269968        9.3189115903
O             1.1703224245       -0.0000851129        9.3223460157
End final coordinates

     Writing all to output data dir ./CO2Cuontop.save/

     General routines

     Parallel routines

     PAW routines

   This run was terminated on:   7:31:27   7Jul2022

   JOB DONE.