     Program PWSCF v.7.0 starts on  6Jul2022 at 10:51:49

     R & G space division:  proc/nbgrp/npool/nimage =      24

     Waiting for input...
     Reading input from standard input

     Current dimensions of program PWSCF are:
     Max number of different atomic species (ntypx) = 10
     Max number of k-points (npk) =  40000
     Max angular momentum in pseudopotentials (lmaxx) =  4
     Message from routine read_pp_mesh:
     mismatch in mesh size, discarding the one in header
     Message from routine read_pp_mesh:
     mismatch in mesh size, discarding the one in header
     Message from routine read_pp_mesh:
     mismatch in mesh size, discarding the one in header

     Parameters for Dispersion (Grimme-D2) Correction:
       atom      VdW radius       C_6

        Cu         2.952        374.666
        C          2.744         60.710
        O          2.536         24.284

     Subspace diagonalization in iterative solution of the eigenvalue problem:
     a serial algorithm will be used

     Using Slab Decomposition

     bravais-lattice index     =           14
     lattice parameter (alat)  =       9.6476  a.u.
     unit-cell volume          =    3998.9451 (a.u.)^3
     number of atoms/cell      =           19
     number of atomic types    =            3
     number of electrons       =       320.00 (up: 160.00, down: 160.00)
     number of Kohn-Sham states=          192
     kinetic-energy cutoff     =      80.0000  Ry
     charge density cutoff     =     320.0000  Ry
     scf convergence threshold =      1.0E-06
     mixing beta               =       0.7000
     number of iterations used =            8  plain     mixing
     energy convergence thresh.=      1.0E-04
     force convergence thresh. =      1.0E-03
     Exchange-correlation= SLA PW PBX PBC
                           (   1   4   3   4   0   0   0)
     nstep                     =           50

     celldm(1)=   9.647638  celldm(2)=   1.000000  celldm(3)=   5.142234
     celldm(4)=   0.000000  celldm(5)=   0.000000  celldm(6)=   0.500000

     crystal axes: (cart. coord. in units of alat)
               a(1) = (   1.000000   0.000000   0.000000 )
               a(2) = (   0.500000   0.866025   0.000000 )
               a(3) = (   0.000000   0.000000   5.142234 )

     reciprocal axes: (cart. coord. in units 2 pi/alat)
               b(1) = (  1.000000 -0.577350  0.000000 )
               b(2) = (  0.000000  1.154701  0.000000 )
               b(3) = (  0.000000  0.000000  0.194468 )

     PseudoPot. # 1 for Cu read from file:
     /mnt/ceph/glen3534/Prep/Adsorption/CO2Cu/CO2Cu.save/Cu.upf
     MD5 check sum: 69e544ce53ba1f79758756dbb2f8fbdd
     Pseudo is Projector augmented-wave + core cor, Zval = 19.0
     Generated using ATOMPAW code
     Shape of augmentation charge: SINC**2
     Using radial grid of 2342 points,  6 beta functions with:
                l(1) =   0
                l(2) =   0
                l(3) =   1
                l(4) =   1
                l(5) =   2
                l(6) =   2
     Q(r) pseudized with 0 coefficients

     PseudoPot. # 2 for C  read from file:
     /mnt/ceph/glen3534/Prep/Adsorption/CO2Cu/CO2Cu.save/C.upf
     MD5 check sum: 97f42ffd943b0217b1b3b9cef70c8633
     Pseudo is Projector augmented-wave + core cor, Zval =  4.0
     Generated using ATOMPAW code
     Shape of augmentation charge: SINC**2
     Using radial grid of 2342 points,  4 beta functions with:
                l(1) =   0
                l(2) =   0
                l(3) =   1
                l(4) =   1
     Q(r) pseudized with 0 coefficients

     PseudoPot. # 3 for O  read from file:
     /mnt/ceph/glen3534/Prep/Adsorption/CO2Cu/CO2Cu.save/O.upf
     MD5 check sum: 45fbb1c0d1f8837f1e386a2947d3aa26
     Pseudo is Projector augmented-wave + core cor, Zval =  6.0
     Generated using ATOMPAW code
     Shape of augmentation charge: SINC**2
     Using radial grid of 2342 points,  4 beta functions with:
                l(1) =   0
                l(2) =   0
                l(3) =   1
                l(4) =   1
     Q(r) pseudized with 0 coefficients

     atomic species   valence    mass     pseudopotential
        Cu            19.00    63.54600     Cu( 1.00)
        C              4.00    12.01100     C ( 1.00)
        O              6.00    15.99900     O ( 1.00)

     Starting magnetic structure
     atomic species   magnetization
        Cu           0.000
        C            0.000
        O            0.000

      2 Sym. Ops. (no inversion) found ( 1 have fractional translation)

                                    s                        frac. trans.

      isym =  1     identity

 cryst.   s( 1) = (     1          0          0      )
                  (     0          1          0      )
                  (     0          0          1      )

 cart.    s( 1) = (  1.0000000  0.0000000  0.0000000 )
                  (  0.0000000  1.0000000  0.0000000 )
                  (  0.0000000  0.0000000  1.0000000 )

      isym =  2     inv. 180 deg rotation - cart. axis [1,0,0]

 cryst.   s( 2) = (    -1          0          0      )    f =(  0.4999999 )
                  (    -1          1          0      )       (  0.0000000 )
                  (     0          0          1      )       (  0.0000000 )

 cart.    s( 2) = ( -1.0000000  0.0000000  0.0000000 )    f =(  0.4999999 )
                  (  0.0000000  1.0000000  0.0000000 )       (  0.0000000 )
                  (  0.0000000  0.0000000  1.0000000 )       (  0.0000000 )

     point group C_s (m)
     there are  2 classes
     the character table:

       E     s
A'     1.00  1.00
A''    1.00 -1.00

     the symmetry operations in each class and the name of the first element:

     E        1
          identity
     s        2
          inv. 180 deg rotation - cart. axis [1,0,0]

   Cartesian axes

     site n.     atom                  positions (alat units)
         1           Cu  tau(   1) = (   0.0000000   0.0000000   0.0000000  )
         2           Cu  tau(   2) = (   0.5000001   0.0000000   0.0000000  )
         3           Cu  tau(   3) = (   0.2500000   0.4330128   0.0000000  )
         4           Cu  tau(   4) = (   0.7500001   0.4330128   0.0000000  )
         5           Cu  tau(   5) = (   0.2500000   0.1443376   0.4082484  )
         6           Cu  tau(   6) = (   0.7500001   0.1443376   0.4082484  )
         7           Cu  tau(   7) = (   0.5000001   0.5773504   0.4082484  )
         8           Cu  tau(   8) = (   1.0000002   0.5773504   0.4082484  )
         9           Cu  tau(   9) = (  -0.0000000   0.2886752   0.8164967  )
        10           Cu  tau(  10) = (   0.5000001   0.2886752   0.8164967  )
        11           Cu  tau(  11) = (   0.2500000   0.7216880   0.8164967  )
        12           Cu  tau(  12) = (   0.7500001   0.7216880   0.8164967  )
        13           Cu  tau(  13) = (   0.0000000   0.0000000   1.2247451  )
        14           Cu  tau(  14) = (   0.5000001   0.0000000   1.2247451  )
        15           Cu  tau(  15) = (   0.2500000   0.4330128   1.2247451  )
        16           Cu  tau(  16) = (   0.7500001   0.4330128   1.2247451  )
        17           O   tau(  17) = (   0.0206917   0.0000000   1.8123686  )
        18           C   tau(  18) = (   0.2500000   0.0000000   1.8123686  )
        19           O   tau(  19) = (   0.4793084   0.0000000   1.8123686  )

   Crystallographic axes

     site n.     atom                  positions (cryst. coord.)
         1           Cu  tau(   1) = (  0.0000000  0.0000000  0.0000000  )
         2           Cu  tau(   2) = (  0.5000001  0.0000000  0.0000000  )
         3           Cu  tau(   3) = ( -0.0000000  0.5000001  0.0000000  )
         4           Cu  tau(   4) = (  0.5000001  0.5000001  0.0000000  )
         5           Cu  tau(   5) = (  0.1666667  0.1666667  0.0793912  )
         6           Cu  tau(   6) = (  0.6666668  0.1666667  0.0793912  )
         7           Cu  tau(   7) = (  0.1666667  0.6666668  0.0793912  )
         8           Cu  tau(   8) = (  0.6666668  0.6666668  0.0793912  )
         9           Cu  tau(   9) = ( -0.1666667  0.3333334  0.1587825  )
        10           Cu  tau(  10) = (  0.3333334  0.3333334  0.1587825  )
        11           Cu  tau(  11) = ( -0.1666667  0.8333335  0.1587825  )
        12           Cu  tau(  12) = (  0.3333334  0.8333335  0.1587825  )
        13           Cu  tau(  13) = (  0.0000000  0.0000000  0.2381737  )
        14           Cu  tau(  14) = (  0.5000001  0.0000000  0.2381737  )
        15           Cu  tau(  15) = ( -0.0000000  0.5000001  0.2381737  )
        16           Cu  tau(  16) = (  0.5000001  0.5000001  0.2381737  )
        17           O   tau(  17) = (  0.0206917  0.0000000  0.3524477  )
        18           C   tau(  18) = (  0.2500000  0.0000000  0.3524477  )
        19           O   tau(  19) = (  0.4793084  0.0000000  0.3524477  )

     number of k points=     7  Gaussian smearing, width (Ry)=  0.0100
                       cart. coord. in units 2pi/alat
        k(    1) = (   0.0000000   0.0000000   0.0000000), wk =   0.0625000
        k(    2) = (   0.0000000   0.2886751   0.0000000), wk =   0.1250000
        k(    3) = (   0.0000000  -0.5773503   0.0000000), wk =   0.0625000
        k(    4) = (   0.2500000  -0.7216878   0.0000000), wk =   0.2500000
        k(    5) = (  -0.2500000   0.1443376   0.0000000), wk =   0.2500000
        k(    6) = (   0.5000000  -0.2886751   0.0000000), wk =   0.1250000
        k(    7) = (  -0.5000000  -0.5773503   0.0000000), wk =   0.1250000

                       cryst. coord.
        k(    1) = (   0.0000000   0.0000000   0.0000000), wk =   0.0625000
        k(    2) = (   0.0000000   0.2500000   0.0000000), wk =   0.1250000
        k(    3) = (   0.0000000  -0.5000000   0.0000000), wk =   0.0625000
        k(    4) = (   0.2500000  -0.5000000   0.0000000), wk =   0.2500000
        k(    5) = (  -0.2500000   0.0000000   0.0000000), wk =   0.2500000
        k(    6) = (   0.5000000   0.0000000   0.0000000), wk =   0.1250000
        k(    7) = (  -0.5000000  -0.7500000   0.0000000), wk =   0.1250000

     Check: negative core charge=   -0.000009
     Generating pointlists ...
     new r_m :   0.2062 (alat units)  1.9898 (a.u.) for type    1
     new r_m :   0.0946 (alat units)  0.9126 (a.u.) for type    2
     new r_m :   0.0946 (alat units)  0.9126 (a.u.) for type    3

     Initial potential from superposition of free atoms

     starting charge     319.9947, renormalised to     320.0000

     negative rho (up, down):  3.286E-03 3.286E-03
     Starting wfcs are  312 randomized atomic wfcs
     Checking if some PAW data can be deallocated...

     Self-consistent Calculation

     iteration #  1     ecut=    80.00 Ry     beta= 0.70
     Davidson diagonalization with overlap

     ethr =  1.00E-02,  avg # of iterations = 14.5

     negative rho (up, down):  7.854E-04 8.754E-04

     total energy              =   -7808.36564742 Ry
     estimated scf accuracy    <      76.92941233 Ry

     total magnetization       =     0.00 Bohr mag/cell
     absolute magnetization    =     1.46 Bohr mag/cell

[...]

     c_bands:  2 eigenvalues not converged
[...]
     1.0000   1.0000   1.0000   1.0000   1.0000   1.0000   1.0000   1.0000
     1.0000   1.0000   1.0000   1.0000   1.0000   1.0000   1.0000   1.0000
     1.0000   1.0000   1.0000   1.0000   1.0000   1.0000   1.0000   1.0000
     1.0000   1.0000   1.0000   1.0000   1.0000   1.0000   1.0000   1.0000
     1.0000   1.0000   1.0000   1.0000   1.0000   1.0000   1.0000   1.0000
     1.0000   1.0000   1.0000   1.0000   1.0000   1.0000   1.0000   1.0000
     1.0000   1.0000   1.0000   1.0000   1.0000   1.0000   1.0000   1.0000
     1.0000   1.0000   1.0000   1.0000   1.0000   1.0000   1.0000   1.0000
     1.0000   1.0000   1.0000   1.0000   1.0000   1.0000   1.0000   1.0000
     1.0000   1.0000   1.0000   1.0000   1.0000   1.0000   1.0000   1.0000
     1.0000   1.0000   1.0000   1.0000   1.0000   1.0000   1.0000   1.0000
     1.0000   1.0000   1.0000   1.0000   1.0000   1.0000   1.0000   1.0000
     1.0000   1.0000   1.0000   1.0000   1.0000   1.0000   1.0000   1.0000
     1.0000   1.0000   1.0000   1.0000   1.0000   1.0000   1.0000   1.0000
     1.0000   1.0000   1.0000   1.0000   1.0000   1.0000   1.0000   0.8843
     0.8246   0.0000   0.0000   0.0000   0.0000   0.0000   0.0000   0.0000
     0.0000   0.0000   0.0000   0.0000   0.0000   0.0000   0.0000   0.0000
     0.0000   0.0000   0.0000   0.0000   0.0000   0.0000   0.0000   0.0000
     0.0000   0.0000   0.0000   0.0000   0.0000   0.0000   0.0000   0.0000

     the spin up/dw Fermi energies are     3.5598    3.5598 ev

!    total energy              =   -7892.05270621 Ry

     total all-electron energy =     -7892.052706 Ry
     estimated scf accuracy    <          1.3E-09 Ry
     smearing contrib. (-TS)   =      -0.00755738 Ry
     internal energy E=F+TS    =   -7892.04514883 Ry

     The total energy is F=E-TS. E is the sum of the following terms:
     one-electron contribution =  -61273.18335940 Ry
     hartree contribution      =   29783.18792853 Ry
     xc contribution           =    -524.00861849 Ry
     ewald contribution        =   24864.70349947 Ry
     Dispersion Correction     =      -0.37360229 Ry
     one-center paw contrib.   =    -742.37099664 Ry
      -> PAW hartree energy AE =     328.84522075 Ry
      -> PAW hartree energy PS =    -270.04556934 Ry
      -> PAW xc energy AE      =    -134.20659335 Ry
      -> PAW xc energy PS      =      30.65283776 Ry
      -> total E_H with PAW    =   29841.98757994 Ry
      -> total E_XC with PAW   =    -627.56237408 Ry

     total magnetization       =     0.00 Bohr mag/cell
     absolute magnetization    =     0.00 Bohr mag/cell

     convergence has been achieved in  13 iterations

     negative rho (up, down):  3.806E-03 3.806E-03

     Forces acting on atoms (cartesian axes, Ry/au):

     atom    1 type  1   force =    -0.00012758    0.00007835    0.00205989
     atom    2 type  1   force =     0.00012758    0.00007835    0.00205989
     atom    3 type  1   force =     0.00000000    0.00000298    0.00188211
     atom    4 type  1   force =     0.00000000   -0.00015646    0.00185500
     atom    5 type  1   force =     0.00000000    0.00018656   -0.00150249
     atom    6 type  1   force =     0.00000000    0.00013094   -0.00168628
     atom    7 type  1   force =    -0.00001082   -0.00016065   -0.00170369
     atom    8 type  1   force =     0.00001082   -0.00016065   -0.00170369
     atom    9 type  1   force =     0.00009886   -0.00013357   -0.00032148
     atom   10 type  1   force =    -0.00009886   -0.00013357   -0.00032148
     atom   11 type  1   force =     0.00000000    0.00008698   -0.00011489
     atom   12 type  1   force =     0.00000000    0.00018837   -0.00019165
     atom   13 type  1   force =     0.00003827   -0.00002360    0.00039885
     atom   14 type  1   force =    -0.00003827   -0.00002360    0.00039885
     atom   15 type  1   force =     0.00000000    0.00019537   -0.00070405
     atom   16 type  1   force =     0.00000000   -0.00013984   -0.00064863
     atom   17 type  3   force =    -0.00001892   -0.00001111   -0.00019465
     atom   18 type  2   force =     0.00000000    0.00000628    0.00063303
     atom   19 type  3   force =     0.00001892   -0.00001111   -0.00019465
     The non-local contrib.  to forces
     atom    1 type  1   force =     0.00100615   -0.00066839   -0.08074334
     atom    2 type  1   force =    -0.00100615   -0.00066839   -0.08074334
     atom    3 type  1   force =     0.00000000    0.00012494   -0.08186463
     atom    4 type  1   force =     0.00000000    0.00121505   -0.08586289
     atom    5 type  1   force =     0.00000000    0.00003914   -0.07397706
     atom    6 type  1   force =     0.00000000    0.00197519   -0.07447943
     atom    7 type  1   force =     0.00173840   -0.00099763   -0.07426587
     atom    8 type  1   force =    -0.00173840   -0.00099763   -0.07426587
     atom    9 type  1   force =    -0.00081455   -0.00185521    0.07645112
     atom   10 type  1   force =     0.00081455   -0.00185521    0.07645112
     atom   11 type  1   force =     0.00000000    0.00233939    0.07035214
     atom   12 type  1   force =     0.00000000    0.00118451    0.07773874
     atom   13 type  1   force =    -0.00641281    0.00021234    0.11527433
     atom   14 type  1   force =     0.00641281    0.00021234    0.11527433
     atom   15 type  1   force =     0.00000000    0.00495604    0.08834874
     atom   16 type  1   force =     0.00000000   -0.00502354    0.08731262
     atom   17 type  3   force =     2.78023837   -0.00015747   -0.01345958
     atom   18 type  2   force =     0.00000000    0.00001299    0.00112150
     atom   19 type  3   force =    -2.78023837   -0.00015747   -0.01345958
     The ionic contribution  to forces
     atom    1 type  1   force =    -0.00040947    0.00253385 -474.97753523
     atom    2 type  1   force =     0.00041391    0.00256417 -474.97752432
     atom    3 type  1   force =     0.00002846   -0.00233218 -474.97532885
     atom    4 type  1   force =    -0.00003054   -0.00277270 -474.97782683
     atom    5 type  1   force =     0.00002721    0.04626012 -176.72286708
     atom    6 type  1   force =    -0.00002750    0.01587518 -176.73621821
     atom    7 type  1   force =    -0.02096321   -0.03253808 -176.78694513
     atom    8 type  1   force =     0.02095842   -0.03251295 -176.78694659
     atom    9 type  1   force =     0.03850575    0.08346489  126.22519679
     atom   10 type  1   force =    -0.03849909    0.08349017  126.22519559
     atom   11 type  1   force =     0.00002547   -0.11199471  125.95361600
     atom   12 type  1   force =    -0.00002943   -0.04669147  125.73047059
     atom   13 type  1   force =    -0.77856314   -0.01905002  423.72478890
     atom   14 type  1   force =     0.77856949   -0.01901951  423.72480011
     atom   15 type  1   force =     0.00002641    0.50045608  427.05676017
     atom   16 type  1   force =    -0.00003274   -0.46715402  426.98927133
     atom   17 type  3   force =   -10.19560507    0.00025014  150.53617212
     atom   18 type  2   force =    -0.00000002   -0.00107959  100.23874846
     atom   19 type  3   force =    10.19560509    0.00025064  150.53617217
     The local contribution  to forces
     atom    1 type  1   force =    -0.00072038   -0.00180792  475.05411526
     atom    2 type  1   force =     0.00072038   -0.00180792  475.05411526
     atom    3 type  1   force =     0.00000000    0.00221744  475.05285542
     atom    4 type  1   force =    -0.00030970    0.00140558  475.05932347
     atom    5 type  1   force =     0.00000000   -0.04610545  176.79169307
     atom    6 type  1   force =    -0.00030780   -0.01771739  176.80535028
     atom    7 type  1   force =     0.01890402    0.03335648  176.85585022
     atom    8 type  1   force =    -0.01951956    0.03335647  176.85585019
     atom    9 type  1   force =    -0.03755826   -0.08176530 -126.29895957
     atom   10 type  1   force =     0.03755826   -0.08176530 -126.29895957
     atom   11 type  1   force =     0.00000000    0.10974363 -126.02103462
     atom   12 type  1   force =    -0.00030771    0.04573010 -125.80539283
     atom   13 type  1   force =     0.78468359    0.01878820 -423.83496427
     atom   14 type  1   force =    -0.78468359    0.01878820 -423.83496427
     atom   15 type  1   force =     0.00000000   -0.50486214 -427.14114913
     atom   16 type  1   force =    -0.00030962    0.47169220 -427.07254905
     atom   17 type  3   force =     7.41571187   -0.00010414 -150.52056277
     atom   18 type  2   force =     0.00000000    0.00107223 -100.23478977
     atom   19 type  3   force =    -7.41571187   -0.00010414 -150.52056277
     The core correction contribution to forces
     atom    1 type  1   force =    -0.00000431    0.00000019    0.00009995
     atom    2 type  1   force =     0.00000431    0.00000019    0.00009995
     atom    3 type  1   force =     0.00000000   -0.00000077    0.00010224
     atom    4 type  1   force =    -0.00000006    0.00000003    0.00010361
     atom    5 type  1   force =    -0.00000000   -0.00000363   -0.00001757
     atom    6 type  1   force =    -0.00000006   -0.00000201   -0.00001389
     atom    7 type  1   force =     0.00000010    0.00000122   -0.00001703
     atom    8 type  1   force =    -0.00000023    0.00000122   -0.00001703
     atom    9 type  1   force =    -0.00000064    0.00000016    0.00001134
     atom   10 type  1   force =     0.00000064    0.00000016    0.00001134
     atom   11 type  1   force =     0.00000000    0.00000018    0.00000573
     atom   12 type  1   force =    -0.00000006    0.00000211    0.00001556
     atom   13 type  1   force =     0.00000641    0.00000033   -0.00009416
     atom   14 type  1   force =    -0.00000641    0.00000033   -0.00009416
     atom   15 type  1   force =     0.00000000   -0.00000651   -0.00011165
     atom   16 type  1   force =    -0.00000006    0.00000623   -0.00011249
     atom   17 type  3   force =     0.00001551    0.00000001   -0.00000033
     atom   18 type  2   force =    -0.00000000    0.00000044   -0.00017892
     atom   19 type  3   force =    -0.00001551    0.00000001   -0.00000033
     The Hubbard contrib.    to forces
     atom    1 type  1   force =     0.00000000    0.00000000    0.00000000
     atom    2 type  1   force =     0.00000000    0.00000000    0.00000000
     atom    3 type  1   force =     0.00000000    0.00000000    0.00000000
     atom    4 type  1   force =     0.00000000    0.00000000    0.00000000
     atom    5 type  1   force =     0.00000000    0.00000000    0.00000000
     atom    6 type  1   force =     0.00000000    0.00000000    0.00000000
     atom    7 type  1   force =     0.00000000    0.00000000    0.00000000
     atom    8 type  1   force =     0.00000000    0.00000000    0.00000000
     atom    9 type  1   force =     0.00000000    0.00000000    0.00000000
     atom   10 type  1   force =     0.00000000    0.00000000    0.00000000
     atom   11 type  1   force =     0.00000000    0.00000000    0.00000000
     atom   12 type  1   force =     0.00000000    0.00000000    0.00000000
     atom   13 type  1   force =     0.00000000    0.00000000    0.00000000
     atom   14 type  1   force =     0.00000000    0.00000000    0.00000000
     atom   15 type  1   force =     0.00000000    0.00000000    0.00000000
     atom   16 type  1   force =     0.00000000    0.00000000    0.00000000
     atom   17 type  3   force =     0.00000000    0.00000000    0.00000000
     atom   18 type  2   force =     0.00000000    0.00000000    0.00000000
     atom   19 type  3   force =     0.00000000    0.00000000    0.00000000
     The SCF correction term to forces
     atom    1 type  1   force =     0.00000000    0.00000000    0.00000000
     atom    2 type  1   force =    -0.00000000    0.00000000    0.00000000
     atom    3 type  1   force =     0.00000000   -0.00000000    0.00000000
     atom    4 type  1   force =     0.00000000   -0.00000000    0.00000000
     atom    5 type  1   force =    -0.00000000    0.00000000    0.00000000
     atom    6 type  1   force =     0.00000000    0.00000000    0.00000000
     atom    7 type  1   force =    -0.00000000   -0.00000000    0.00000000
     atom    8 type  1   force =     0.00000000   -0.00000000    0.00000000
     atom    9 type  1   force =    -0.00001500    0.00000236    0.00009546
     atom   10 type  1   force =     0.00001500    0.00000236    0.00009546
     atom   11 type  1   force =    -0.00000000    0.00000553    0.00007473
     atom   12 type  1   force =     0.00000000   -0.00001636    0.00009875
     atom   13 type  1   force =     0.00001645    0.00000546   -0.00017421
     atom   14 type  1   force =    -0.00001645    0.00000546   -0.00017421
     atom   15 type  1   force =     0.00000000   -0.00001636   -0.00013564
     atom   16 type  1   force =    -0.00000000    0.00000791   -0.00013892
     atom   17 type  3   force =     0.00000300    0.00000010   -0.00000141
     atom   18 type  2   force =    -0.00000000   -0.00000004   -0.00000191
     atom   19 type  3   force =    -0.00000300    0.00000010   -0.00000141

     Dispersion contribution to forces:
     atom    1 type  1   force =     0.00000014   -0.00000080    0.00608475
     atom    2 type  1   force =    -0.00000014   -0.00000080    0.00608475
     atom    3 type  1   force =    -0.00000001    0.00000074    0.00608396
     atom    4 type  1   force =     0.00000001    0.00000087    0.00608492
     atom    5 type  1   force =    -0.00000001   -0.00000642    0.00359079
     atom    6 type  1   force =     0.00000001   -0.00000310    0.00358848
     atom    7 type  1   force =     0.00000023    0.00000710    0.00359642
     atom    8 type  1   force =    -0.00000022    0.00000710    0.00359642
     atom    9 type  1   force =    -0.00001512    0.00000685   -0.00307530
     atom   10 type  1   force =     0.00001511    0.00000685   -0.00307530
     atom   11 type  1   force =    -0.00000001   -0.00000709   -0.00308815
     atom   12 type  1   force =     0.00000001   -0.00002057   -0.00308173
     atom   13 type  1   force =     0.00031095    0.00000480   -0.00439663
     atom   14 type  1   force =    -0.00031095    0.00000479   -0.00439663
     atom   15 type  1   force =    -0.00000000   -0.00033178   -0.00437582
     atom   16 type  1   force =     0.00000001    0.00033134   -0.00439138
     atom   17 type  3   force =    -0.00038259   -0.00000004   -0.00230199
     atom   18 type  2   force =     0.00000000    0.00000020   -0.00422560
     atom   19 type  3   force =     0.00038259   -0.00000004   -0.00230199

     Total force =     0.001459     Total SCF correction =     0.000366

     Total Dispersion Force =     0.018545
     SCF correction compared to forces is large: reduce conv_thr to get better values
     Energy error            =      3.3E-06 Ry
     Gradient error          =      7.0E-04 Ry/Bohr

     bfgs converged in  16 scf cycles and  15 bfgs steps
     (criteria: energy <  1.0E-04 Ry, force <  1.0E-03 Ry/Bohr)

     End of BFGS Geometry Optimization

     Final energy             =   -7892.0527062141 Ry

     File ./CO2Cubridge.bfgs deleted, as requested
Begin final coordinates

ATOMIC_POSITIONS (angstrom)
Cu            0.0000000000        0.0000000000        0.0000000000    0   0   0
Cu            2.5526554801        0.0000000000        0.0000000000    0   0   0
Cu            1.2763277400        2.2106644929        0.0000000000    0   0   0
Cu            3.8289832201        2.2106644929        0.0000000000    0   0   0
Cu            1.2763277400        0.7368881643        2.0842344718    0   0   0
Cu            3.8289832201        0.7368881643        2.0842344718    0   0   0
Cu            2.5526554801        2.9475526571        2.0842344718    0   0   0
Cu            5.1053109602        2.9475526571        2.0842344718    0   0   0
Cu           -0.0006357036        1.4742620877        4.1212637913
Cu            2.5532911836        1.4742620877        4.1212637913
Cu            1.2763277400        3.6833418412        4.1194244682
Cu            3.8289832201        3.6835378066        4.1184784627
Cu           -0.0006699921        0.0001831314        6.1811897919
Cu            2.5533254722        0.0001831314        6.1811897919
Cu            1.2763277400        2.2079948312        6.1911421646
Cu            3.8289832201        2.2137571429        6.1902030596
O             0.1060118229       -0.0001074832        9.2798982778
C             1.2763277400       -0.0001568740        9.2737324402
O             2.4466436572       -0.0001074832        9.2798982778
End final coordinates

     Writing all to output data dir ./CO2Cubridge.save/

     General routines

     Parallel routines

     PAW routines

   This run was terminated on:  14:34: 8   7Jul2022

   JOB DONE.