     Program PWSCF v.7.0 starts on  6Jul2022 at 10:51:49

     R & G space division:  proc/nbgrp/npool/nimage =      24

     Waiting for input...
     Reading input from standard input

     Current dimensions of program PWSCF are:
     Max number of different atomic species (ntypx) = 10
     Max number of k-points (npk) =  40000
     Max angular momentum in pseudopotentials (lmaxx) =  4
     Message from routine read_pp_mesh:
     mismatch in mesh size, discarding the one in header
     Message from routine read_pp_mesh:
     mismatch in mesh size, discarding the one in header
     Message from routine read_pp_mesh:
     mismatch in mesh size, discarding the one in header

     Parameters for Dispersion (Grimme-D2) Correction:
       atom      VdW radius       C_6

        Cu         2.952        374.666
        C          2.744         60.710
        O          2.536         24.284

     Subspace diagonalization in iterative solution of the eigenvalue problem:
     a serial algorithm will be used

     Using Slab Decomposition

     bravais-lattice index     =           14
     lattice parameter (alat)  =       9.6476  a.u.
     unit-cell volume          =    3998.9451 (a.u.)^3
     number of atoms/cell      =           19
     number of atomic types    =            3
     number of electrons       =       320.00 (up: 160.00, down: 160.00)
     number of Kohn-Sham states=          192
     kinetic-energy cutoff     =      80.0000  Ry
     charge density cutoff     =     320.0000  Ry
     scf convergence threshold =      1.0E-06
     mixing beta               =       0.7000
     number of iterations used =            8  plain     mixing
     energy convergence thresh.=      1.0E-04
     force convergence thresh. =      1.0E-03
     Exchange-correlation= SLA PW PBX PBC
                           (   1   4   3   4   0   0   0)
     nstep                     =           50

     celldm(1)=   9.647638  celldm(2)=   1.000000  celldm(3)=   5.142234
     celldm(4)=   0.000000  celldm(5)=   0.000000  celldm(6)=   0.500000

     crystal axes: (cart. coord. in units of alat)
               a(1) = (   1.000000   0.000000   0.000000 )
               a(2) = (   0.500000   0.866025   0.000000 )
               a(3) = (   0.000000   0.000000   5.142234 )

     reciprocal axes: (cart. coord. in units 2 pi/alat)
               b(1) = (  1.000000 -0.577350  0.000000 )
               b(2) = (  0.000000  1.154701  0.000000 )
               b(3) = (  0.000000  0.000000  0.194468 )

     PseudoPot. # 1 for Cu read from file:
     /mnt/ceph/glen3534/Prep/Adsorption/CO2Cu/CO2Cu.save/Cu.upf
     MD5 check sum: 69e544ce53ba1f79758756dbb2f8fbdd
     Pseudo is Projector augmented-wave + core cor, Zval = 19.0
     Generated using ATOMPAW code
     Shape of augmentation charge: SINC**2
     Using radial grid of 2342 points,  6 beta functions with:
                l(1) =   0
                l(2) =   0
                l(3) =   1
                l(4) =   1
                l(5) =   2
                l(6) =   2
     Q(r) pseudized with 0 coefficients

     PseudoPot. # 2 for C  read from file:
     /mnt/ceph/glen3534/Prep/Adsorption/CO2Cu/CO2Cu.save/C.upf
     MD5 check sum: 97f42ffd943b0217b1b3b9cef70c8633
     Pseudo is Projector augmented-wave + core cor, Zval =  4.0
     Generated using ATOMPAW code
     Shape of augmentation charge: SINC**2
     Using radial grid of 2342 points,  4 beta functions with:
                l(1) =   0
                l(2) =   0
                l(3) =   1
                l(4) =   1
     Q(r) pseudized with 0 coefficients

     PseudoPot. # 3 for O  read from file:
     /mnt/ceph/glen3534/Prep/Adsorption/CO2Cu/CO2Cu.save/O.upf
     MD5 check sum: 45fbb1c0d1f8837f1e386a2947d3aa26
     Pseudo is Projector augmented-wave + core cor, Zval =  6.0
     Generated using ATOMPAW code
     Shape of augmentation charge: SINC**2
     Using radial grid of 2342 points,  4 beta functions with:
                l(1) =   0
                l(2) =   0
                l(3) =   1
                l(4) =   1
     Q(r) pseudized with 0 coefficients

     atomic species   valence    mass     pseudopotential
        Cu            19.00    63.54600     Cu( 1.00)
        C              4.00    12.01100     C ( 1.00)
        O              6.00    15.99900     O ( 1.00)

     Starting magnetic structure
     atomic species   magnetization
        Cu           0.000
        C            0.000
        O            0.000

      2 Sym. Ops. (no inversion) found ( 1 have fractional translation)

                                    s                        frac. trans.

      isym =  1     identity

 cryst.   s( 1) = (     1          0          0      )
                  (     0          1          0      )
                  (     0          0          1      )

 cart.    s( 1) = (  1.0000000  0.0000000  0.0000000 )
                  (  0.0000000  1.0000000  0.0000000 )
                  (  0.0000000  0.0000000  1.0000000 )

      isym =  2     inv. 180 deg rotation - cart. axis [1,0,0]

 cryst.   s( 2) = (    -1          0          0      )    f =(  0.4999999 )
                  (    -1          1          0      )       (  0.0000000 )
                  (     0          0          1      )       (  0.0000000 )

 cart.    s( 2) = ( -1.0000000  0.0000000  0.0000000 )    f =(  0.4999999 )
                  (  0.0000000  1.0000000  0.0000000 )       (  0.0000000 )
                  (  0.0000000  0.0000000  1.0000000 )       (  0.0000000 )

     point group C_s (m)
     there are  2 classes
     the character table:

       E     s
A'     1.00  1.00
A''    1.00 -1.00

     the symmetry operations in each class and the name of the first element:

     E        1
          identity
     s        2
          inv. 180 deg rotation - cart. axis [1,0,0]

   Cartesian axes

     site n.     atom                  positions (alat units)
         1           Cu  tau(   1) = (   0.0000000   0.0000000   0.0000000  )
         2           Cu  tau(   2) = (   0.5000001   0.0000000   0.0000000  )
         3           Cu  tau(   3) = (   0.2500000   0.4330128   0.0000000  )
         4           Cu  tau(   4) = (   0.7500001   0.4330128   0.0000000  )
         5           Cu  tau(   5) = (   0.2500000   0.1443376   0.4082484  )
         6           Cu  tau(   6) = (   0.7500001   0.1443376   0.4082484  )
         7           Cu  tau(   7) = (   0.5000001   0.5773504   0.4082484  )
         8           Cu  tau(   8) = (   1.0000002   0.5773504   0.4082484  )
         9           Cu  tau(   9) = (  -0.0000000   0.2886752   0.8164967  )
        10           Cu  tau(  10) = (   0.5000001   0.2886752   0.8164967  )
        11           Cu  tau(  11) = (   0.2500000   0.7216880   0.8164967  )
        12           Cu  tau(  12) = (   0.7500001   0.7216880   0.8164967  )
        13           Cu  tau(  13) = (   0.0000000   0.0000000   1.2247451  )
        14           Cu  tau(  14) = (   0.5000001   0.0000000   1.2247451  )
        15           Cu  tau(  15) = (   0.2500000   0.4330128   1.2247451  )
        16           Cu  tau(  16) = (   0.7500001   0.4330128   1.2247451  )
        17           O   tau(  17) = (   0.0206917   0.1443376   1.8123686  )
        18           C   tau(  18) = (   0.2500000   0.1443376   1.8123686  )
        19           O   tau(  19) = (   0.4793084   0.1443376   1.8123686  )

   Crystallographic axes

     site n.     atom                  positions (cryst. coord.)
         1           Cu  tau(   1) = (  0.0000000  0.0000000  0.0000000  )
         2           Cu  tau(   2) = (  0.5000001  0.0000000  0.0000000  )
         3           Cu  tau(   3) = ( -0.0000000  0.5000001  0.0000000  )
         4           Cu  tau(   4) = (  0.5000001  0.5000001  0.0000000  )
         5           Cu  tau(   5) = (  0.1666667  0.1666667  0.0793912  )
         6           Cu  tau(   6) = (  0.6666668  0.1666667  0.0793912  )
         7           Cu  tau(   7) = (  0.1666667  0.6666668  0.0793912  )
         8           Cu  tau(   8) = (  0.6666668  0.6666668  0.0793912  )
         9           Cu  tau(   9) = ( -0.1666667  0.3333334  0.1587825  )
        10           Cu  tau(  10) = (  0.3333334  0.3333334  0.1587825  )
        11           Cu  tau(  11) = ( -0.1666667  0.8333335  0.1587825  )
        12           Cu  tau(  12) = (  0.3333334  0.8333335  0.1587825  )
        13           Cu  tau(  13) = (  0.0000000  0.0000000  0.2381737  )
        14           Cu  tau(  14) = (  0.5000001  0.0000000  0.2381737  )
        15           Cu  tau(  15) = ( -0.0000000  0.5000001  0.2381737  )
        16           Cu  tau(  16) = (  0.5000001  0.5000001  0.2381737  )
        17           O   tau(  17) = ( -0.0626416  0.1666667  0.3524477  )
        18           C   tau(  18) = (  0.1666667  0.1666667  0.3524477  )
        19           O   tau(  19) = (  0.3959750  0.1666667  0.3524477  )

     number of k points=     7  Gaussian smearing, width (Ry)=  0.0100
                       cart. coord. in units 2pi/alat
        k(    1) = (   0.0000000   0.0000000   0.0000000), wk =   0.0625000
        k(    2) = (   0.0000000   0.2886751   0.0000000), wk =   0.1250000
        k(    3) = (   0.0000000  -0.5773503   0.0000000), wk =   0.0625000
        k(    4) = (   0.2500000  -0.7216878   0.0000000), wk =   0.2500000
        k(    5) = (  -0.2500000   0.1443376   0.0000000), wk =   0.2500000
        k(    6) = (   0.5000000  -0.2886751   0.0000000), wk =   0.1250000
        k(    7) = (  -0.5000000  -0.5773503   0.0000000), wk =   0.1250000

                       cryst. coord.
        k(    1) = (   0.0000000   0.0000000   0.0000000), wk =   0.0625000
        k(    2) = (   0.0000000   0.2500000   0.0000000), wk =   0.1250000
        k(    3) = (   0.0000000  -0.5000000   0.0000000), wk =   0.0625000
        k(    4) = (   0.2500000  -0.5000000   0.0000000), wk =   0.2500000
        k(    5) = (  -0.2500000   0.0000000   0.0000000), wk =   0.2500000
        k(    6) = (   0.5000000   0.0000000   0.0000000), wk =   0.1250000
        k(    7) = (  -0.5000000  -0.7500000   0.0000000), wk =   0.1250000

     Check: negative core charge=   -0.000009
     Generating pointlists ...
     new r_m :   0.2062 (alat units)  1.9898 (a.u.) for type    1
     new r_m :   0.0946 (alat units)  0.9126 (a.u.) for type    2
     new r_m :   0.0946 (alat units)  0.9126 (a.u.) for type    3

     Initial potential from superposition of free atoms

     starting charge     319.9947, renormalised to     320.0000

     negative rho (up, down):  3.285E-03 3.285E-03
     Starting wfcs are  312 randomized atomic wfcs
     Checking if some PAW data can be deallocated...

     Self-consistent Calculation

     iteration #  1     ecut=    80.00 Ry     beta= 0.70
     Davidson diagonalization with overlap

     ethr =  1.00E-02,  avg # of iterations = 12.4

     negative rho (up, down):  6.325E-04 7.274E-04

     total energy              =   -7808.49359141 Ry
     estimated scf accuracy    <      76.80410478 Ry

     total magnetization       =    -0.00 Bohr mag/cell
     absolute magnetization    =     1.47 Bohr mag/cell

[...]

     c_bands:  1 eigenvalues not converged
[...]
     1.0000   1.0000   1.0000   1.0000   1.0000   1.0000   1.0000   1.0000
     1.0000   1.0000   1.0000   1.0000   1.0000   1.0000   1.0000   1.0000
     1.0000   1.0000   1.0000   1.0000   1.0000   1.0000   1.0000   1.0000
     1.0000   1.0000   1.0000   1.0000   1.0000   1.0000   1.0000   1.0000
     1.0000   1.0000   1.0000   1.0000   1.0000   1.0000   1.0000   1.0000
     1.0000   1.0000   1.0000   1.0000   1.0000   1.0000   1.0000   1.0000
     1.0000   1.0000   1.0000   1.0000   1.0000   1.0000   1.0000   1.0000
     1.0000   1.0000   1.0000   1.0000   1.0000   1.0000   1.0000   1.0000
     1.0000   1.0000   1.0000   1.0000   1.0000   1.0000   1.0000   1.0000
     1.0000   1.0000   1.0000   1.0000   1.0000   1.0000   1.0000   1.0000
     1.0000   1.0000   1.0000   1.0000   1.0000   1.0000   1.0000   1.0000
     1.0000   1.0000   1.0000   1.0000   1.0000   1.0000   1.0000   1.0000
     1.0000   1.0000   1.0000   1.0000   1.0000   1.0000   1.0000   1.0000
     1.0000   1.0000   1.0000   1.0000   1.0000   1.0000   1.0000   1.0000
     1.0000   1.0000   1.0000   1.0000   1.0000   1.0000   1.0000   0.8826
     0.8315   0.0000   0.0000   0.0000   0.0000   0.0000   0.0000   0.0000
     0.0000   0.0000   0.0000   0.0000   0.0000   0.0000   0.0000   0.0000
     0.0000   0.0000   0.0000   0.0000   0.0000   0.0000   0.0000   0.0000
     0.0000   0.0000   0.0000   0.0000   0.0000   0.0000   0.0000   0.0000

     the spin up/dw Fermi energies are     3.5543    3.5543 ev

!    total energy              =   -7892.05244029 Ry

     total all-electron energy =     -7892.052440 Ry
     estimated scf accuracy    <          1.8E-09 Ry
     smearing contrib. (-TS)   =      -0.00756176 Ry
     internal energy E=F+TS    =   -7892.04487854 Ry

     The total energy is F=E-TS. E is the sum of the following terms:
     one-electron contribution =  -61289.99933279 Ry
     hartree contribution      =   29791.55335621 Ry
     xc contribution           =    -524.01096977 Ry
     ewald contribution        =   24873.15666724 Ry
     Dispersion Correction     =      -0.37404594 Ry
     one-center paw contrib.   =    -742.37055349 Ry
      -> PAW hartree energy AE =     328.84506789 Ry
      -> PAW hartree energy PS =    -270.04554534 Ry
      -> PAW xc energy AE      =    -134.20656684 Ry
      -> PAW xc energy PS      =      30.65282869 Ry
      -> total E_H with PAW    =   29850.35287876 Ry
      -> total E_XC with PAW   =    -627.56470792 Ry

     total magnetization       =     0.00 Bohr mag/cell
     absolute magnetization    =     0.00 Bohr mag/cell

     convergence has been achieved in  15 iterations

     negative rho (up, down):  3.800E-03 3.800E-03

     Forces acting on atoms (cartesian axes, Ry/au):

     atom    1 type  1   force =    -0.00015737    0.00011329    0.00190129
     atom    2 type  1   force =     0.00015737    0.00011329    0.00190129
     atom    3 type  1   force =     0.00000000   -0.00001329    0.00173631
     atom    4 type  1   force =     0.00000000   -0.00020888    0.00189750
     atom    5 type  1   force =     0.00000000    0.00009958   -0.00201507
     atom    6 type  1   force =     0.00000000    0.00026108   -0.00298360
     atom    7 type  1   force =     0.00014257   -0.00015861   -0.00240831
     atom    8 type  1   force =    -0.00014257   -0.00015861   -0.00240831
     atom    9 type  1   force =     0.00006176    0.00005051    0.00036303
     atom   10 type  1   force =    -0.00006176    0.00005051    0.00036303
     atom   11 type  1   force =     0.00000000   -0.00005557    0.00088501
     atom   12 type  1   force =     0.00000000    0.00004654    0.00065563
     atom   13 type  1   force =     0.00011583    0.00020952    0.00016421
     atom   14 type  1   force =    -0.00011583    0.00020952    0.00016421
     atom   15 type  1   force =     0.00000000   -0.00012103    0.00070747
     atom   16 type  1   force =     0.00000000   -0.00009206   -0.00074381
     atom   17 type  3   force =    -0.00049175   -0.00008717   -0.00027773
     atom   18 type  2   force =     0.00000000   -0.00017145    0.00037559
     atom   19 type  3   force =     0.00049175   -0.00008717   -0.00027773
     The non-local contrib.  to forces
     atom    1 type  1   force =     0.00133772   -0.00084201   -0.08232979
     atom    2 type  1   force =    -0.00133772   -0.00084201   -0.08232979
     atom    3 type  1   force =     0.00000000    0.00005467   -0.08356749
     atom    4 type  1   force =     0.00000000    0.00159478   -0.08167695
     atom    5 type  1   force =     0.00000000   -0.00069981   -0.07251169
     atom    6 type  1   force =     0.00000000   -0.00010652   -0.07643198
     atom    7 type  1   force =     0.00055453    0.00042361   -0.07417975
     atom    8 type  1   force =    -0.00055453    0.00042361   -0.07417975
     atom    9 type  1   force =    -0.00204850   -0.00136427    0.07428385
     atom   10 type  1   force =     0.00204850   -0.00136427    0.07428385
     atom   11 type  1   force =     0.00000000    0.00231987    0.07420220
     atom   12 type  1   force =     0.00000000    0.00018305    0.07967294
     atom   13 type  1   force =    -0.00617702    0.01035367    0.10977782
     atom   14 type  1   force =     0.00617702    0.01035367    0.10977782
     atom   15 type  1   force =     0.00000000   -0.00497372    0.08214301
     atom   16 type  1   force =     0.00000000   -0.01335740    0.10508212
     atom   17 type  3   force =     2.77999352   -0.00158905   -0.00965748
     atom   18 type  2   force =     0.00000000   -0.00013994    0.00103100
     atom   19 type  3   force =    -2.77999352   -0.00158905   -0.00965748
     The ionic contribution  to forces
     atom    1 type  1   force =     0.00496109    0.00169185 -475.06134386
     atom    2 type  1   force =    -0.00495664    0.00172218 -475.06133296
     atom    3 type  1   force =     0.00002846   -0.00456741 -475.05660128
     atom    4 type  1   force =    -0.00003054    0.00115828 -475.05772425
     atom    5 type  1   force =     0.00002720    0.02907803 -176.74102684
     atom    6 type  1   force =    -0.00002746    0.07316977 -176.90587609
     atom    7 type  1   force =     0.03866519   -0.05045254 -176.82083239
     atom    8 type  1   force =    -0.03867000   -0.05042750 -176.82083392
     atom    9 type  1   force =    -0.04012592    0.08820384  126.30701879
     atom   10 type  1   force =     0.04013249    0.08822901  126.30701736
     atom   11 type  1   force =     0.00002541   -0.06074374  125.67974204
     atom   12 type  1   force =    -0.00002946   -0.10305083  126.31844208
     atom   13 type  1   force =    -0.65674081   -0.77694679  424.77326598
     atom   14 type  1   force =     0.65674713   -0.77691633  424.77327712
     atom   15 type  1   force =     0.00002647    1.09387696  424.36437082
     atom   16 type  1   force =    -0.00003282    0.35008217  427.53609544
     atom   17 type  3   force =   -10.18955614    0.03827937  150.58734798
     atom   18 type  2   force =     0.00000013    0.01933382  100.29164646
     atom   19 type  3   force =    10.18955622    0.03827985  150.58734753
     The local contribution  to forces
     atom    1 type  1   force =    -0.00645200   -0.00074697  475.13947006
     atom    2 type  1   force =     0.00645200   -0.00074697  475.13947006
     atom    3 type  1   force =     0.00000000    0.00449312  475.13579526
     atom    4 type  1   force =    -0.00030970   -0.00296628  475.13518229
     atom    5 type  1   force =     0.00000000   -0.02826455  176.80804496
     atom    6 type  1   force =    -0.00030783   -0.07279799  176.97585580
     atom    7 type  1   force =    -0.03939556    0.04984855  176.88911390
     atom    8 type  1   force =     0.03878005    0.04984862  176.88911394
     atom    9 type  1   force =     0.04225727   -0.08677057 -126.37773810
     atom   10 type  1   force =    -0.04225727   -0.08677057 -126.37773810
     atom   11 type  1   force =    -0.00000000    0.05833742 -125.74980363
     atom   12 type  1   force =    -0.00030765    0.10290601 -126.39419423
     atom   13 type  1   force =     0.66268508    0.76651764 -424.87897812
     atom   14 type  1   force =    -0.66268508    0.76651764 -424.87897812
     atom   15 type  1   force =     0.00000000   -1.08843647 -424.44174020
     atom   16 type  1   force =    -0.00030953   -0.33667183 -427.63776792
     atom   17 type  3   force =     7.40945761   -0.03688216 -150.57511048
     atom   18 type  2   force =     0.00000000   -0.01935903 -100.28759606
     atom   19 type  3   force =    -7.40945761   -0.03688216 -150.57511048
     The core correction contribution to forces
     atom    1 type  1   force =    -0.00000179    0.00000002    0.00009458
     atom    2 type  1   force =     0.00000179    0.00000002    0.00009458
     atom    3 type  1   force =    -0.00000000   -0.00000002    0.00009643
     atom    4 type  1   force =    -0.00000006   -0.00000067    0.00010475
     atom    5 type  1   force =     0.00000000   -0.00000165   -0.00002070
     atom    6 type  1   force =    -0.00000006   -0.00000181   -0.00001283
     atom    7 type  1   force =    -0.00000037    0.00000176   -0.00001216
     atom    8 type  1   force =     0.00000025    0.00000176   -0.00001216
     atom    9 type  1   force =    -0.00000193    0.00000360    0.00001167
     atom   10 type  1   force =     0.00000193    0.00000360    0.00001167
     atom   11 type  1   force =    -0.00000000    0.00000062    0.00001381
     atom   12 type  1   force =    -0.00000006   -0.00000799    0.00001776
     atom   13 type  1   force =     0.00000916    0.00001071   -0.00009758
     atom   14 type  1   force =    -0.00000916    0.00001071   -0.00009758
     atom   15 type  1   force =     0.00000000   -0.00001806   -0.00010682
     atom   16 type  1   force =    -0.00000006   -0.00000652   -0.00011610
     atom   17 type  3   force =     0.00001553    0.00000007   -0.00000039
     atom   18 type  2   force =    -0.00000001   -0.00000830   -0.00015581
     atom   19 type  3   force =    -0.00001553    0.00000007   -0.00000039
     The Hubbard contrib.    to forces
     atom    1 type  1   force =     0.00000000    0.00000000    0.00000000
     atom    2 type  1   force =     0.00000000    0.00000000    0.00000000
     atom    3 type  1   force =     0.00000000    0.00000000    0.00000000
     atom    4 type  1   force =     0.00000000    0.00000000    0.00000000
     atom    5 type  1   force =     0.00000000    0.00000000    0.00000000
     atom    6 type  1   force =     0.00000000    0.00000000    0.00000000
     atom    7 type  1   force =     0.00000000    0.00000000    0.00000000
     atom    8 type  1   force =     0.00000000    0.00000000    0.00000000
     atom    9 type  1   force =     0.00000000    0.00000000    0.00000000
     atom   10 type  1   force =     0.00000000    0.00000000    0.00000000
     atom   11 type  1   force =     0.00000000    0.00000000    0.00000000
     atom   12 type  1   force =     0.00000000    0.00000000    0.00000000
     atom   13 type  1   force =     0.00000000    0.00000000    0.00000000
     atom   14 type  1   force =     0.00000000    0.00000000    0.00000000
     atom   15 type  1   force =     0.00000000    0.00000000    0.00000000
     atom   16 type  1   force =     0.00000000    0.00000000    0.00000000
     atom   17 type  3   force =     0.00000000    0.00000000    0.00000000
     atom   18 type  2   force =     0.00000000    0.00000000    0.00000000
     atom   19 type  3   force =     0.00000000    0.00000000    0.00000000
     The SCF correction term to forces
     atom    1 type  1   force =     0.00000000   -0.00000000   -0.00000000
     atom    2 type  1   force =    -0.00000000   -0.00000000   -0.00000000
     atom    3 type  1   force =     0.00000000    0.00000000   -0.00000000
     atom    4 type  1   force =    -0.00000000    0.00000000   -0.00000000
     atom    5 type  1   force =    -0.00000000   -0.00000000   -0.00000000
     atom    6 type  1   force =     0.00000000    0.00000000   -0.00000000
     atom    7 type  1   force =     0.00000000    0.00000000   -0.00000000
     atom    8 type  1   force =    -0.00000000    0.00000000   -0.00000000
     atom    9 type  1   force =     0.00003283    0.00000070   -0.00002827
     atom   10 type  1   force =    -0.00003283    0.00000070   -0.00002827
     atom   11 type  1   force =     0.00000000   -0.00002071   -0.00000228
     atom   12 type  1   force =     0.00000000    0.00002095   -0.00004947
     atom   13 type  1   force =    -0.00000344   -0.00001792    0.00024019
     atom   14 type  1   force =     0.00000343   -0.00001792    0.00024019
     atom   15 type  1   force =    -0.00000000    0.00001251    0.00021772
     atom   16 type  1   force =    -0.00000000    0.00001046    0.00023891
     atom   17 type  3   force =     0.00000121    0.00000027   -0.00000475
     atom   18 type  2   force =    -0.00000000    0.00000030   -0.00000258
     atom   19 type  3   force =    -0.00000121    0.00000027   -0.00000475

     Dispersion contribution to forces:
     atom    1 type  1   force =    -0.00000154   -0.00000063    0.00609754
     atom    2 type  1   force =     0.00000153   -0.00000064    0.00609754
     atom    3 type  1   force =    -0.00000001    0.00000152    0.00609563
     atom    4 type  1   force =     0.00000001   -0.00000026    0.00609599
     atom    5 type  1   force =    -0.00000001    0.00000398    0.00360854
     atom    6 type  1   force =     0.00000001   -0.00000967    0.00362261
     atom    7 type  1   force =    -0.00001206    0.00000188    0.00362523
     atom    8 type  1   force =     0.00001207    0.00000188    0.00362523
     atom    9 type  1   force =    -0.00004871   -0.00003595   -0.00311097
     atom   10 type  1   force =     0.00004870   -0.00003595   -0.00311097
     atom   11 type  1   force =    -0.00000001    0.00005040   -0.00319391
     atom   12 type  1   force =     0.00000001   -0.00000521   -0.00316023
     atom   13 type  1   force =     0.00034602    0.00027640   -0.00397643
     atom   14 type  1   force =    -0.00034602    0.00027639   -0.00397643
     atom   15 type  1   force =    -0.00000000   -0.00058281   -0.00410384
     atom   16 type  1   force =     0.00000001   -0.00014951   -0.00420303
     atom   17 type  3   force =    -0.00040344    0.00010353   -0.00277915
     atom   18 type  2   force =    -0.00000000    0.00000112   -0.00447420
     atom   19 type  3   force =     0.00040344    0.00010353   -0.00277915

     Total force =     0.001888     Total SCF correction =     0.000477

     Total Dispersion Force =     0.018530
     SCF correction compared to forces is large: reduce conv_thr to get better values
     Energy error            =      1.0E-05 Ry
     Gradient error          =      8.9E-04 Ry/Bohr

     bfgs converged in  12 scf cycles and  11 bfgs steps
     (criteria: energy <  1.0E-04 Ry, force <  1.0E-03 Ry/Bohr)

     End of BFGS Geometry Optimization

     Final energy             =   -7892.0524402916 Ry

     File ./CO2Cufcc.bfgs deleted, as requested
Begin final coordinates

ATOMIC_POSITIONS (angstrom)
Cu            0.0000000000        0.0000000000        0.0000000000    0   0   0
Cu            2.5526554801        0.0000000000        0.0000000000    0   0   0
Cu            1.2763277400        2.2106644929        0.0000000000    0   0   0
Cu            3.8289832201        2.2106644929        0.0000000000    0   0   0
Cu            1.2763277400        0.7368881643        2.0842344718    0   0   0
Cu            3.8289832201        0.7368881643        2.0842344718    0   0   0
Cu            2.5526554801        2.9475526571        2.0842344718    0   0   0
Cu            5.1053109602        2.9475526571        2.0842344718    0   0   0
Cu           -0.0021003684        1.4733480725        4.1181929484
Cu            2.5547558485        1.4733480725        4.1181929484
Cu            1.2763277400        3.6862529136        4.1132860886
Cu            3.8289832201        3.6839330852        4.1178031262
Cu           -0.0000518875       -0.0007221628        6.1858282390
Cu            2.5527073676       -0.0007221628        6.1858282390
Cu            1.2763277400        2.2138760287        6.1728295151
Cu            3.8289832201        2.2148158135        6.1975736740
O             0.1061164756        0.7345465405        9.2744555283
C             1.2763277400        0.7350492446        9.2683872531
O             2.4465390045        0.7345465405        9.2744555283
End final coordinates

     Writing all to output data dir ./CO2Cufcc.save/

     General routines

     Parallel routines

     PAW routines

   This run was terminated on:   7: 8:57   7Jul2022

   JOB DONE.